p sp 42 82
a 8 39
a 19 39
a 7 19
a 18 19
a 14 15
a 3 15
a 9 10
a 12 36
a 3 42
a 4 41
a 15 16
a 10 29
a 13 28
a 7 21
a 1 35
a 10 38
a 11 37
a 24 37
a 25 36
a 16 42
a 22 30
a 14 35
a 5 32
a 4 34
a 2 27
a 12 13
a 22 23
a 23 24
a 8 20
a 24 25
a 17 41
a 8 38
a 20 21
a 6 31
a 6 40
a 21 38
a 8 31
a 9 30
a 5 41
a 19 40
a 10 37
a 25 26
a 15 27
a 26 36
a 18 32
a 12 28
a 18 41
a 23 37
a 4 33
a 10 30
a 11 29
a 25 28
a 1 2
a 2 3
a 20 39
a 13 36
a 24 36
a 6 39
a 22 38
a 3 34
a 17 33
a 8 30
a 17 42
a 5 40
a 9 38
a 1 27
a 24 29
a 15 35
a 6 32
a 16 34
a 7 31
a 18 40
a 14 27
a 34 42
a 2 16
a 5 33
a 11 28
a 26 28
a 18 33
a 22 24
a 11 12
a 7 8
