p sp 620 4182
a 1 2
a 1 3
a 1 4
a 1 5
a 1 6
a 1 7
a 2 1
a 2 8
a 2 9
a 2 10
a 2 11
a 2 12
a 2 6
a 2 13
a 2 7
a 3 1
a 3 14
a 3 15
a 3 16
a 3 17
a 3 18
a 3 19
a 3 20
a 3 21
a 3 22
a 3 5
a 3 23
a 3 24
a 3 25
a 3 26
a 4 1
a 4 27
a 5 1
a 5 28
a 5 3
a 5 29
a 5 30
a 5 17
a 5 31
a 5 32
a 5 27
a 5 33
a 5 34
a 5 35
a 5 36
a 5 37
a 5 38
a 5 39
a 5 22
a 5 40
a 5 41
a 5 42
a 5 43
a 5 44
a 5 45
a 5 46
a 5 47
a 5 19
a 5 24
a 6 1
a 6 8
a 6 48
a 6 2
a 6 49
a 6 50
a 6 51
a 6 13
a 6 7
a 7 1
a 7 8
a 7 9
a 7 52
a 7 2
a 7 53
a 7 54
a 7 50
a 7 6
a 7 55
a 7 56
a 7 57
a 7 12
a 7 51
a 7 58
a 7 11
a 7 13
a 59 18
a 59 23
a 18 59
a 18 60
a 18 61
a 18 62
a 18 63
a 18 64
a 18 65
a 18 66
a 18 67
a 18 68
a 18 15
a 18 69
a 18 70
a 18 71
a 18 72
a 18 28
a 18 3
a 18 73
a 18 74
a 18 75
a 18 29
a 18 30
a 18 76
a 18 77
a 18 78
a 18 79
a 18 26
a 18 80
a 18 17
a 18 81
a 18 82
a 18 83
a 18 84
a 18 85
a 18 86
a 18 87
a 18 88
a 18 89
a 18 90
a 18 91
a 18 92
a 18 93
a 18 94
a 18 95
a 18 96
a 18 97
a 18 98
a 18 99
a 18 32
a 18 100
a 18 27
a 18 33
a 18 101
a 18 102
a 18 103
a 18 104
a 18 34
a 18 105
a 18 106
a 18 35
a 18 107
a 18 108
a 18 109
a 18 110
a 18 111
a 18 37
a 18 112
a 18 113
a 18 114
a 18 115
a 18 116
a 18 36
a 18 117
a 18 118
a 18 39
a 18 119
a 18 120
a 18 121
a 18 122
a 18 123
a 18 124
a 18 22
a 18 125
a 18 126
a 18 127
a 18 128
a 18 38
a 18 129
a 18 130
a 18 41
a 18 131
a 18 132
a 18 133
a 18 134
a 18 135
a 18 136
a 18 137
a 18 138
a 18 139
a 18 140
a 18 44
a 18 141
a 18 142
a 18 143
a 18 144
a 18 145
a 18 45
a 18 146
a 18 46
a 18 147
a 18 148
a 18 149
a 18 150
a 18 151
a 18 152
a 18 153
a 18 154
a 18 47
a 18 25
a 18 43
a 18 155
a 18 19
a 18 156
a 18 157
a 18 158
a 18 159
a 18 160
a 18 23
a 18 161
a 18 162
a 18 163
a 18 24
a 23 59
a 23 63
a 23 67
a 23 15
a 23 69
a 23 28
a 23 3
a 23 75
a 23 29
a 23 76
a 23 26
a 23 17
a 23 85
a 23 90
a 23 97
a 23 98
a 23 99
a 23 32
a 23 33
a 23 34
a 23 105
a 23 35
a 23 107
a 23 18
a 23 142
a 23 147
a 23 154
a 23 37
a 23 38
a 23 116
a 23 39
a 23 130
a 23 134
a 23 22
a 23 41
a 23 117
a 23 148
a 23 150
a 23 152
a 23 43
a 23 156
a 23 157
a 23 140
a 23 126
a 23 46
a 23 163
a 23 47
a 60 18
a 60 32
a 60 121
a 32 60
a 32 164
a 32 14
a 32 165
a 32 28
a 32 26
a 32 16
a 32 17
a 32 85
a 32 89
a 32 92
a 32 97
a 32 108
a 32 37
a 32 166
a 32 167
a 32 168
a 32 22
a 32 154
a 32 18
a 32 169
a 32 131
a 32 5
a 32 159
a 32 103
a 32 121
a 32 23
a 32 132
a 32 170
a 32 27
a 32 171
a 121 60
a 121 28
a 121 32
a 121 172
a 121 35
a 121 18
a 121 173
a 121 174
a 121 171
a 121 133
a 121 175
a 176 177
a 176 178
a 176 179
a 176 145
a 176 180
a 176 181
a 176 182
a 176 183
a 176 184
a 176 185
a 177 176
a 177 186
a 177 183
a 177 187
a 177 178
a 177 156
a 177 188
a 178 176
a 178 184
a 178 187
a 178 182
a 178 189
a 178 190
a 178 177
a 178 188
a 178 180
a 178 191
a 179 176
a 179 189
a 179 192
a 179 145
a 179 188
a 179 181
a 179 187
a 145 176
a 145 193
a 145 194
a 145 179
a 145 29
a 145 195
a 145 196
a 145 197
a 145 102
a 145 198
a 145 18
a 145 37
a 145 199
a 145 20
a 145 157
a 145 200
a 145 201
a 145 202
a 145 24
a 180 176
a 180 186
a 180 183
a 180 187
a 180 178
a 180 156
a 180 188
a 181 176
a 181 179
a 181 187
a 182 176
a 182 186
a 182 183
a 182 203
a 182 187
a 182 204
a 182 178
a 182 205
a 182 188
a 182 206
a 182 190
a 183 176
a 183 186
a 183 177
a 183 192
a 183 180
a 183 182
a 183 184
a 183 187
a 184 176
a 184 186
a 184 183
a 184 178
a 184 192
a 184 188
a 184 190
a 184 187
a 184 150
a 185 176
a 185 207
a 164 102
a 164 32
a 164 17
a 164 35
a 164 208
a 102 164
a 102 14
a 102 26
a 102 17
a 102 87
a 102 209
a 102 170
a 102 152
a 102 18
a 102 210
a 102 145
a 102 206
a 102 211
a 102 212
a 102 213
a 17 164
a 17 63
a 17 15
a 17 28
a 17 3
a 17 29
a 17 76
a 17 26
a 17 16
a 17 37
a 17 166
a 17 85
a 17 214
a 17 40
a 17 31
a 17 126
a 17 168
a 17 114
a 17 20
a 17 116
a 17 215
a 17 216
a 17 89
a 17 46
a 17 217
a 17 47
a 17 18
a 17 19
a 17 41
a 17 32
a 17 39
a 17 5
a 17 102
a 17 218
a 17 103
a 17 142
a 17 27
a 17 167
a 17 23
a 17 33
a 17 22
a 17 132
a 17 219
a 17 34
a 17 220
a 17 170
a 17 24
a 17 175
a 17 125
a 17 105
a 17 35
a 35 164
a 35 28
a 35 26
a 35 16
a 35 17
a 35 85
a 35 216
a 35 89
a 35 92
a 35 170
a 35 103
a 35 121
a 35 18
a 35 168
a 35 167
a 35 23
a 35 131
a 35 5
a 35 47
a 35 175
a 35 19
a 208 164
a 61 18
a 61 221
a 61 109
a 61 222
a 221 61
a 221 223
a 109 61
a 109 63
a 109 68
a 109 29
a 109 76
a 109 78
a 109 79
a 109 16
a 109 88
a 109 94
a 109 143
a 109 44
a 109 18
a 109 147
a 109 162
a 109 39
a 109 126
a 222 61
a 222 223
a 224 225
a 225 224
a 225 226
a 227 228
a 227 229
a 227 230
a 227 231
a 227 232
a 228 227
a 228 229
a 228 233
a 228 234
a 228 235
a 228 236
a 228 231
a 229 227
a 229 228
a 229 233
a 229 237
a 229 230
a 229 231
a 230 227
a 230 229
a 230 231
a 231 227
a 231 228
a 231 229
a 231 238
a 231 234
a 231 235
a 231 236
a 231 233
a 231 230
a 231 239
a 232 227
a 232 240
a 232 241
a 232 242
a 232 243
a 232 244
a 232 245
a 232 246
a 232 247
a 232 248
a 232 249
a 232 250
a 232 251
a 232 252
a 232 253
a 232 254
a 232 255
a 232 256
a 232 257
a 232 258
a 232 234
a 232 259
a 232 260
a 232 261
a 232 262
a 232 263
a 232 264
a 232 265
a 232 266
a 232 267
a 232 268
a 232 269
a 232 270
a 232 271
a 232 272
a 232 273
a 232 274
a 232 275
a 232 276
a 232 277
a 232 278
a 232 279
a 232 280
a 232 281
a 232 282
a 232 283
a 232 284
a 232 285
a 232 286
a 232 287
a 232 288
a 232 289
a 232 290
a 232 291
a 232 292
a 232 293
a 232 294
a 232 295
a 232 296
a 62 297
a 62 18
a 62 298
a 62 299
a 62 15
a 62 300
a 62 301
a 297 62
a 297 302
a 297 94
a 297 143
a 298 62
a 298 303
a 298 299
a 298 301
a 299 62
a 299 298
a 299 301
a 299 300
a 15 62
a 15 304
a 15 134
a 15 167
a 15 168
a 15 89
a 15 47
a 15 118
a 15 26
a 15 16
a 15 17
a 15 18
a 15 19
a 15 28
a 15 3
a 15 23
a 15 132
a 15 163
a 15 170
a 15 27
a 15 305
a 15 106
a 300 62
a 300 303
a 300 299
a 301 62
a 301 303
a 301 298
a 301 299
a 306 307
a 306 20
a 306 308
a 306 309
a 306 310
a 307 306
a 307 311
a 20 306
a 20 63
a 20 14
a 20 69
a 20 3
a 20 29
a 20 76
a 20 80
a 20 17
a 20 85
a 20 105
a 20 142
a 20 147
a 20 37
a 20 312
a 20 39
a 20 130
a 20 22
a 20 126
a 20 46
a 20 47
a 20 145
a 308 306
a 308 310
a 309 306
a 309 313
a 309 314
a 309 315
a 309 316
a 309 317
a 309 318
a 310 306
a 310 319
a 310 320
a 310 308
a 63 37
a 63 147
a 63 214
a 63 167
a 63 321
a 63 322
a 63 20
a 63 109
a 63 215
a 63 89
a 63 43
a 63 16
a 63 17
a 63 18
a 63 64
a 63 39
a 63 157
a 63 103
a 63 28
a 63 143
a 63 323
a 63 23
a 63 82
a 63 14
a 63 162
a 63 29
a 63 125
a 63 201
a 37 63
a 37 324
a 37 29
a 37 76
a 37 79
a 37 16
a 37 17
a 37 82
a 37 209
a 37 32
a 37 27
a 37 33
a 37 103
a 37 18
a 37 147
a 37 167
a 37 215
a 37 46
a 37 126
a 37 20
a 37 116
a 37 43
a 37 41
a 37 39
a 37 5
a 37 130
a 37 23
a 37 145
a 37 45
a 37 22
a 37 123
a 37 325
a 147 63
a 147 14
a 147 29
a 147 30
a 147 76
a 147 78
a 147 79
a 147 16
a 147 216
a 147 89
a 147 217
a 147 31
a 147 323
a 147 52
a 147 322
a 147 321
a 147 109
a 147 18
a 147 304
a 147 167
a 147 20
a 147 215
a 147 39
a 147 157
a 147 326
a 147 218
a 147 312
a 147 143
a 147 56
a 147 23
a 147 45
a 147 327
a 147 22
a 147 162
a 147 37
a 147 24
a 147 125
a 214 63
a 214 17
a 214 166
a 167 63
a 167 15
a 167 165
a 167 28
a 167 29
a 167 26
a 167 17
a 167 88
a 167 31
a 167 32
a 167 33
a 167 103
a 167 34
a 167 35
a 167 147
a 167 37
a 167 328
a 167 47
a 167 126
a 167 137
a 167 130
a 167 19
a 167 39
a 167 157
a 167 329
a 167 125
a 321 63
a 321 29
a 321 76
a 321 39
a 321 147
a 322 63
a 322 29
a 322 76
a 322 85
a 322 107
a 322 312
a 322 44
a 322 45
a 322 147
a 322 39
a 322 47
a 322 126
a 322 130
a 322 142
a 215 63
a 215 324
a 215 29
a 215 76
a 215 80
a 215 17
a 215 82
a 215 34
a 215 147
a 215 37
a 215 38
a 215 312
a 215 39
a 215 130
a 215 40
a 215 41
a 215 157
a 215 330
a 215 126
a 215 146
a 215 46
a 89 63
a 89 15
a 89 165
a 89 28
a 89 29
a 89 26
a 89 17
a 89 88
a 89 328
a 89 31
a 89 147
a 89 47
a 89 126
a 89 137
a 89 33
a 89 130
a 89 18
a 89 19
a 89 32
a 89 39
a 89 157
a 89 329
a 89 103
a 89 34
a 89 125
a 89 35
a 43 63
a 43 16
a 43 85
a 43 88
a 43 209
a 43 217
a 43 103
a 43 18
a 43 331
a 43 37
a 43 39
a 43 22
a 43 168
a 43 123
a 43 44
a 43 46
a 43 5
a 43 23
a 43 24
a 43 126
a 16 63
a 16 67
a 16 68
a 16 15
a 16 72
a 16 28
a 16 3
a 16 29
a 16 76
a 16 78
a 16 79
a 16 26
a 16 107
a 16 37
a 16 94
a 16 147
a 16 47
a 16 126
a 16 150
a 16 109
a 16 116
a 16 88
a 16 154
a 16 130
a 16 90
a 16 85
a 16 43
a 16 17
a 16 44
a 16 19
a 16 101
a 16 32
a 16 39
a 16 157
a 16 141
a 16 142
a 16 143
a 16 46
a 16 33
a 16 22
a 16 162
a 16 125
a 16 35
a 64 63
a 64 18
a 64 76
a 64 39
a 64 29
a 64 158
a 64 126
a 64 70
a 64 150
a 64 28
a 39 63
a 39 64
a 39 14
a 39 70
a 39 165
a 39 28
a 39 29
a 39 30
a 39 76
a 39 26
a 39 16
a 39 17
a 39 82
a 39 216
a 39 89
a 39 217
a 39 332
a 39 196
a 39 323
a 39 333
a 39 170
a 39 27
a 39 52
a 39 103
a 39 107
a 39 322
a 39 321
a 39 109
a 39 18
a 39 147
a 39 167
a 39 37
a 39 312
a 39 143
a 39 166
a 39 40
a 39 126
a 39 218
a 39 20
a 39 215
a 39 334
a 39 130
a 39 43
a 39 19
a 39 5
a 39 157
a 39 335
a 39 56
a 39 125
a 39 42
a 39 162
a 39 23
a 39 24
a 39 336
a 39 201
a 157 63
a 157 29
a 157 76
a 157 16
a 157 85
a 157 89
a 157 196
a 157 197
a 157 105
a 157 18
a 157 337
a 157 147
a 157 167
a 157 338
a 157 39
a 157 130
a 157 339
a 157 340
a 157 341
a 157 215
a 157 126
a 157 155
a 157 23
a 157 145
a 157 201
a 103 63
a 103 70
a 103 28
a 103 29
a 103 76
a 103 26
a 103 17
a 103 83
a 103 89
a 103 90
a 103 32
a 103 333
a 103 27
a 103 33
a 103 37
a 103 167
a 103 47
a 103 126
a 103 168
a 103 342
a 103 152
a 103 138
a 103 343
a 103 38
a 103 334
a 103 344
a 103 43
a 103 18
a 103 39
a 103 45
a 103 35
a 28 63
a 28 64
a 28 15
a 28 30
a 28 134
a 28 85
a 28 76
a 28 47
a 28 126
a 28 168
a 28 114
a 28 345
a 28 88
a 28 132
a 28 216
a 28 89
a 28 33
a 28 118
a 28 46
a 28 26
a 28 16
a 28 17
a 28 18
a 28 19
a 28 32
a 28 39
a 28 131
a 28 5
a 28 103
a 28 27
a 28 213
a 28 121
a 28 167
a 28 23
a 28 74
a 28 198
a 28 206
a 28 22
a 28 162
a 28 34
a 28 170
a 28 24
a 28 325
a 28 195
a 28 125
a 28 29
a 28 35
a 143 63
a 143 29
a 143 76
a 143 78
a 143 16
a 143 88
a 143 94
a 143 109
a 143 18
a 143 147
a 143 297
a 143 39
a 143 126
a 143 130
a 323 63
a 323 29
a 323 76
a 323 39
a 323 147
a 82 63
a 82 29
a 82 76
a 82 39
a 82 215
a 82 134
a 82 18
a 82 37
a 82 338
a 82 126
a 82 340
a 82 201
a 14 63
a 14 20
a 14 3
a 14 88
a 14 110
a 14 147
a 14 144
a 14 32
a 14 39
a 14 31
a 14 102
a 14 130
a 14 72
a 14 29
a 162 63
a 162 69
a 162 28
a 162 29
a 162 76
a 162 78
a 162 79
a 162 16
a 162 88
a 162 109
a 162 18
a 162 147
a 162 39
a 162 130
a 162 41
a 162 126
a 29 63
a 29 64
a 29 14
a 29 70
a 29 324
a 29 165
a 29 28
a 29 107
a 29 78
a 29 37
a 29 30
a 29 76
a 29 338
a 29 321
a 29 126
a 29 82
a 29 168
a 29 322
a 29 346
a 29 20
a 29 312
a 29 215
a 29 89
a 29 334
a 29 333
a 29 27
a 29 16
a 29 17
a 29 196
a 29 18
a 29 147
a 29 118
a 29 41
a 29 39
a 29 100
a 29 5
a 29 157
a 29 329
a 29 103
a 29 109
a 29 347
a 29 143
a 29 323
a 29 213
a 29 167
a 29 23
a 29 145
a 29 206
a 29 348
a 29 162
a 29 146
a 29 133
a 29 349
a 29 125
a 29 340
a 29 201
a 125 63
a 125 28
a 125 29
a 125 16
a 125 17
a 125 89
a 125 18
a 125 147
a 125 167
a 125 39
a 125 218
a 201 63
a 201 194
a 201 350
a 201 29
a 201 351
a 201 76
a 201 80
a 201 352
a 201 82
a 201 84
a 201 347
a 201 93
a 201 353
a 201 354
a 201 105
a 201 346
a 201 355
a 201 356
a 201 312
a 201 357
a 201 39
a 201 358
a 201 199
a 201 157
a 201 349
a 201 330
a 201 126
a 201 359
a 201 360
a 201 145
a 201 361
a 201 191
a 201 362
a 363 364
a 363 365
a 364 363
a 364 366
a 364 305
a 364 367
a 365 363
a 365 196
a 365 197
a 365 198
a 365 368
a 365 369
a 365 112
a 370 371
a 370 372
a 370 373
a 370 374
a 370 375
a 370 376
a 371 370
a 371 372
a 371 375
a 371 373
a 371 374
a 371 376
a 372 370
a 372 377
a 372 371
a 372 378
a 372 373
a 372 379
a 372 375
a 372 376
a 372 380
a 372 374
a 373 370
a 373 381
a 373 382
a 373 372
a 373 379
a 373 375
a 373 371
a 373 380
a 373 376
a 373 377
a 373 383
a 373 374
a 374 370
a 374 372
a 374 379
a 374 375
a 374 371
a 374 373
a 375 370
a 375 372
a 375 371
a 375 373
a 375 383
a 375 376
a 375 374
a 376 370
a 376 372
a 376 375
a 376 371
a 376 373
a 384 385
a 384 305
a 384 386
a 385 384
a 385 387
a 385 388
a 385 389
a 385 390
a 305 384
a 305 15
a 305 316
a 305 391
a 305 364
a 305 315
a 386 384
a 193 145
a 381 373
a 381 392
a 392 381
a 76 64
a 76 194
a 76 165
a 76 28
a 76 29
a 76 30
a 76 37
a 76 134
a 76 393
a 76 147
a 76 321
a 76 394
a 76 126
a 76 82
a 76 322
a 76 20
a 76 312
a 76 304
a 76 215
a 76 132
a 76 332
a 76 166
a 76 85
a 76 155
a 76 16
a 76 17
a 76 196
a 76 18
a 76 19
a 76 337
a 76 369
a 76 39
a 76 157
a 76 218
a 76 103
a 76 142
a 76 143
a 76 213
a 76 23
a 76 198
a 76 206
a 76 162
a 76 323
a 76 109
a 76 24
a 76 201
a 76 195
a 158 64
a 158 18
a 158 168
a 158 150
a 126 64
a 126 70
a 126 28
a 126 29
a 126 30
a 126 76
a 126 16
a 126 17
a 126 82
a 126 89
a 126 347
a 126 27
a 126 103
a 126 322
a 126 346
a 126 109
a 126 18
a 126 337
a 126 167
a 126 37
a 126 329
a 126 143
a 126 39
a 126 118
a 126 348
a 126 20
a 126 43
a 126 157
a 126 162
a 126 349
a 126 201
a 126 395
a 126 215
a 126 155
a 126 23
a 70 64
a 70 346
a 70 213
a 70 18
a 70 128
a 70 206
a 70 42
a 70 39
a 70 103
a 70 79
a 70 126
a 70 29
a 150 64
a 150 16
a 150 216
a 150 95
a 150 184
a 150 27
a 150 18
a 150 396
a 150 129
a 150 131
a 150 136
a 150 168
a 150 114
a 150 23
a 150 158
a 397 398
a 397 399
a 397 400
a 397 401
a 397 402
a 397 403
a 397 404
a 397 405
a 397 406
a 397 407
a 397 408
a 397 409
a 398 397
a 398 410
a 398 409
a 398 403
a 398 406
a 398 404
a 398 400
a 398 405
a 398 408
a 398 402
a 398 399
a 398 401
a 398 407
a 399 397
a 399 409
a 399 403
a 399 406
a 399 404
a 399 400
a 399 405
a 399 408
a 399 398
a 399 401
a 399 402
a 399 407
a 400 397
a 400 409
a 400 403
a 400 406
a 400 404
a 400 398
a 400 399
a 400 401
a 400 402
a 400 405
a 400 407
a 400 408
a 401 397
a 401 411
a 401 412
a 401 413
a 401 414
a 401 415
a 401 416
a 401 403
a 401 417
a 401 406
a 401 418
a 401 419
a 401 420
a 401 400
a 401 405
a 401 421
a 401 398
a 401 399
a 401 226
a 401 402
a 401 422
a 401 407
a 402 397
a 402 410
a 402 409
a 402 403
a 402 406
a 402 404
a 402 400
a 402 405
a 402 408
a 402 398
a 402 399
a 402 401
a 402 407
a 403 397
a 403 409
a 403 398
a 403 399
a 403 400
a 403 401
a 403 402
a 403 405
a 403 404
a 403 406
a 403 407
a 404 397
a 404 411
a 404 412
a 404 413
a 404 414
a 404 415
a 404 416
a 404 403
a 404 417
a 404 406
a 404 418
a 404 419
a 404 420
a 404 399
a 404 405
a 404 421
a 404 398
a 404 400
a 404 226
a 404 402
a 404 422
a 404 407
a 405 397
a 405 409
a 405 403
a 405 423
a 405 406
a 405 404
a 405 400
a 405 398
a 405 399
a 405 401
a 405 402
a 405 407
a 405 408
a 406 397
a 406 409
a 406 403
a 406 398
a 406 399
a 406 400
a 406 401
a 406 402
a 406 405
a 406 404
a 406 407
a 406 408
a 407 397
a 407 409
a 407 413
a 407 415
a 407 403
a 407 424
a 407 406
a 407 404
a 407 400
a 407 405
a 407 408
a 407 398
a 407 399
a 407 401
a 407 402
a 407 226
a 408 397
a 408 406
a 408 400
a 408 405
a 408 398
a 408 399
a 408 402
a 408 407
a 409 397
a 409 398
a 409 399
a 409 400
a 409 402
a 409 403
a 409 405
a 409 406
a 409 407
a 186 184
a 186 177
a 186 180
a 186 182
a 186 183
a 65 18
a 66 18
a 66 425
a 66 336
a 66 92
a 66 155
a 425 66
a 425 426
a 425 97
a 425 334
a 425 427
a 336 66
a 336 67
a 336 91
a 336 92
a 336 99
a 336 154
a 336 39
a 336 139
a 92 66
a 92 428
a 92 429
a 92 430
a 92 18
a 92 139
a 92 32
a 92 431
a 92 99
a 92 159
a 92 175
a 92 336
a 92 35
a 155 66
a 155 76
a 155 99
a 155 18
a 155 337
a 155 122
a 155 157
a 155 126
a 432 116
a 432 40
a 432 433
a 432 34
a 432 105
a 432 434
a 116 432
a 116 16
a 116 17
a 116 18
a 116 37
a 116 435
a 116 41
a 116 23
a 116 24
a 40 432
a 40 17
a 40 216
a 40 27
a 40 39
a 40 215
a 40 5
a 40 24
a 433 432
a 34 432
a 34 28
a 34 17
a 34 89
a 34 27
a 34 215
a 34 18
a 34 156
a 34 167
a 34 5
a 34 23
a 34 24
a 34 329
a 105 432
a 105 30
a 105 17
a 105 20
a 105 312
a 105 23
a 105 157
a 105 18
a 105 201
a 434 432
a 434 134
a 410 398
a 410 421
a 410 418
a 410 402
a 421 410
a 421 414
a 421 416
a 421 234
a 421 423
a 421 418
a 421 419
a 421 404
a 421 401
a 421 226
a 418 410
a 418 411
a 418 412
a 418 415
a 418 416
a 418 423
a 418 422
a 418 401
a 418 420
a 418 226
a 418 421
a 418 404
a 436 437
a 436 438
a 436 439
a 436 440
a 437 436
a 437 438
a 437 440
a 438 436
a 438 439
a 438 440
a 438 437
a 438 33
a 438 441
a 439 436
a 439 346
a 439 356
a 439 191
a 439 438
a 439 349
a 440 436
a 440 438
a 440 437
a 88 14
a 88 28
a 88 78
a 88 16
a 88 43
a 88 143
a 88 109
a 88 219
a 88 18
a 88 45
a 88 89
a 88 167
a 88 162
a 88 123
a 88 217
a 88 209
a 110 14
a 110 26
a 110 31
a 110 170
a 110 18
a 110 24
a 144 14
a 144 18
a 31 14
a 31 17
a 31 89
a 31 285
a 31 147
a 31 110
a 31 167
a 31 5
a 31 442
a 31 137
a 130 14
a 130 78
a 130 16
a 130 89
a 130 217
a 130 52
a 130 322
a 130 18
a 130 167
a 130 37
a 130 143
a 130 39
a 130 218
a 130 304
a 130 20
a 130 44
a 130 41
a 130 157
a 130 56
a 130 23
a 130 162
a 130 24
a 130 215
a 72 14
a 72 18
a 72 142
a 72 16
a 72 304
a 443 444
a 443 445
a 443 446
a 443 447
a 443 448
a 443 449
a 444 443
a 444 450
a 444 451
a 444 445
a 444 447
a 444 448
a 444 446
a 444 452
a 444 449
a 445 443
a 445 453
a 445 454
a 445 450
a 445 451
a 445 444
a 445 448
a 445 446
a 445 455
a 445 447
a 445 456
a 445 452
a 445 449
a 446 443
a 446 451
a 446 457
a 446 445
a 446 448
a 446 444
a 446 458
a 447 443
a 447 445
a 447 444
a 448 443
a 448 451
a 448 445
a 448 456
a 448 444
a 448 446
a 448 458
a 448 452
a 448 318
a 449 443
a 449 451
a 449 445
a 449 444
a 449 318
a 459 368
a 368 459
a 368 194
a 368 196
a 368 197
a 368 198
a 368 365
a 368 460
a 368 461
a 368 202
a 453 445
a 462 248
a 248 462
a 248 240
a 248 253
a 248 279
a 248 260
a 248 232
a 248 271
a 248 249
a 248 463
a 454 451
a 454 445
a 454 452
a 451 454
a 451 450
a 451 448
a 451 444
a 451 445
a 451 446
a 451 455
a 451 458
a 451 452
a 451 456
a 451 449
a 452 454
a 452 450
a 452 451
a 452 445
a 452 455
a 452 448
a 452 444
a 464 302
a 302 464
a 302 297
a 302 465
a 302 77
a 302 466
a 302 467
a 468 458
a 458 468
a 458 451
a 458 448
a 458 446
a 240 469
a 240 248
a 240 284
a 240 241
a 240 470
a 240 282
a 240 463
a 240 98
a 240 286
a 240 69
a 240 244
a 240 267
a 240 471
a 240 243
a 240 255
a 240 288
a 240 232
a 240 252
a 240 156
a 240 337
a 240 290
a 240 472
a 240 283
a 240 473
a 240 265
a 469 240
a 469 75
a 469 473
a 469 474
a 284 240
a 284 241
a 284 253
a 284 270
a 284 232
a 284 290
a 241 240
a 241 284
a 241 281
a 241 249
a 241 276
a 241 290
a 241 282
a 241 253
a 241 254
a 241 251
a 241 273
a 241 287
a 241 245
a 241 283
a 241 243
a 241 277
a 241 255
a 241 232
a 241 269
a 241 263
a 241 463
a 241 292
a 241 264
a 241 244
a 241 272
a 241 295
a 470 240
a 470 245
a 470 246
a 470 249
a 470 253
a 470 288
a 282 240
a 282 241
a 282 475
a 282 253
a 282 268
a 282 273
a 282 463
a 282 232
a 463 240
a 463 241
a 463 245
a 463 248
a 463 250
a 463 252
a 463 253
a 463 255
a 463 268
a 463 275
a 463 282
a 463 291
a 463 294
a 463 296
a 463 283
a 98 240
a 98 75
a 98 476
a 98 196
a 98 18
a 98 139
a 98 23
a 98 474
a 286 240
a 286 245
a 286 253
a 286 275
a 286 232
a 286 288
a 69 240
a 69 20
a 69 18
a 69 153
a 69 139
a 69 75
a 69 162
a 69 473
a 69 476
a 69 23
a 69 127
a 69 87
a 69 474
a 244 240
a 244 241
a 244 258
a 244 277
a 244 292
a 244 232
a 244 281
a 244 289
a 244 272
a 244 253
a 267 240
a 267 253
a 267 232
a 267 279
a 471 240
a 471 75
a 243 240
a 243 241
a 243 232
a 243 290
a 243 253
a 255 240
a 255 241
a 255 250
a 255 253
a 255 254
a 255 463
a 255 232
a 255 270
a 255 287
a 255 318
a 255 290
a 255 261
a 288 240
a 288 245
a 288 253
a 288 275
a 288 470
a 288 232
a 288 286
a 252 240
a 252 317
a 252 253
a 252 232
a 252 463
a 252 287
a 252 290
a 156 240
a 156 477
a 156 75
a 156 473
a 156 34
a 156 18
a 156 474
a 156 177
a 156 180
a 156 23
a 156 478
a 337 240
a 337 75
a 337 76
a 337 394
a 337 155
a 337 348
a 337 157
a 337 126
a 290 240
a 290 241
a 290 243
a 290 250
a 290 251
a 290 252
a 290 253
a 290 254
a 290 255
a 290 256
a 290 263
a 290 264
a 290 265
a 290 268
a 290 270
a 290 272
a 290 273
a 290 275
a 290 479
a 290 278
a 290 232
a 290 480
a 290 481
a 290 284
a 290 482
a 290 287
a 290 472
a 290 291
a 290 296
a 472 240
a 472 253
a 472 264
a 472 270
a 472 290
a 472 287
a 283 240
a 283 241
a 283 253
a 283 463
a 283 232
a 283 294
a 473 240
a 473 69
a 473 75
a 473 347
a 473 151
a 473 469
a 473 156
a 473 483
a 473 474
a 265 240
a 265 253
a 265 232
a 265 290
a 67 16
a 67 18
a 67 100
a 67 23
a 67 129
a 67 336
a 67 95
a 67 154
a 100 67
a 100 165
a 100 29
a 100 97
a 100 56
a 100 18
a 100 52
a 129 67
a 129 18
a 129 474
a 129 128
a 129 139
a 129 140
a 129 150
a 95 67
a 95 18
a 95 128
a 95 139
a 95 131
a 95 140
a 95 150
a 154 67
a 154 16
a 154 32
a 154 18
a 154 223
a 154 484
a 154 23
a 154 336
a 281 241
a 281 244
a 281 232
a 249 241
a 249 248
a 249 232
a 249 470
a 276 241
a 276 232
a 253 241
a 253 243
a 253 244
a 253 248
a 253 252
a 253 284
a 253 470
a 253 282
a 253 260
a 253 290
a 253 286
a 253 267
a 253 238
a 253 283
a 253 255
a 253 288
a 253 232
a 253 357
a 253 263
a 253 463
a 253 472
a 253 265
a 254 241
a 254 255
a 254 232
a 254 287
a 254 290
a 251 241
a 251 232
a 251 270
a 251 290
a 273 241
a 273 232
a 273 282
a 273 290
a 287 241
a 287 252
a 287 254
a 287 255
a 287 268
a 287 232
a 287 290
a 287 472
a 245 241
a 245 288
a 245 232
a 245 470
a 245 286
a 245 274
a 245 246
a 245 463
a 277 241
a 277 244
a 277 262
a 277 292
a 277 232
a 277 285
a 277 289
a 277 280
a 269 241
a 269 246
a 269 261
a 269 263
a 269 232
a 269 274
a 263 241
a 263 253
a 263 261
a 263 232
a 263 269
a 263 290
a 292 241
a 292 244
a 292 485
a 292 277
a 292 232
a 264 241
a 264 232
a 264 290
a 264 472
a 272 241
a 272 244
a 272 256
a 272 232
a 272 486
a 272 290
a 295 241
a 295 232
a 194 487
a 194 76
a 194 488
a 194 196
a 194 44
a 194 489
a 194 145
a 194 490
a 194 197
a 194 198
a 194 304
a 194 369
a 194 368
a 194 170
a 194 461
a 194 201
a 194 26
a 487 194
a 487 196
a 487 197
a 487 198
a 488 194
a 488 196
a 488 369
a 488 197
a 488 198
a 196 194
a 196 488
a 196 29
a 196 76
a 196 476
a 196 98
a 196 145
a 196 368
a 196 198
a 196 487
a 196 112
a 196 39
a 196 113
a 196 365
a 196 157
a 44 194
a 44 16
a 44 85
a 44 90
a 44 27
a 44 322
a 44 109
a 44 18
a 44 130
a 44 43
a 44 304
a 44 5
a 44 24
a 489 194
a 489 46
a 490 194
a 197 194
a 197 488
a 197 195
a 197 491
a 197 365
a 197 145
a 197 198
a 197 487
a 197 368
a 197 492
a 197 157
a 197 493
a 197 461
a 197 200
a 197 141
a 198 194
a 198 488
a 198 28
a 198 76
a 198 195
a 198 196
a 198 197
a 198 202
a 198 145
a 198 358
a 198 487
a 198 368
a 198 146
a 198 365
a 198 494
a 304 194
a 304 15
a 304 72
a 304 76
a 304 85
a 304 90
a 304 147
a 304 25
a 304 130
a 304 44
a 369 194
a 369 488
a 369 76
a 369 365
a 170 194
a 170 15
a 170 28
a 170 17
a 170 32
a 170 33
a 170 110
a 170 22
a 170 39
a 170 47
a 170 102
a 170 117
a 170 168
a 170 35
a 461 194
a 461 197
a 461 368
a 26 194
a 26 15
a 26 28
a 26 3
a 26 167
a 26 168
a 26 114
a 26 110
a 26 89
a 26 47
a 26 118
a 26 117
a 26 16
a 26 17
a 26 33
a 26 18
a 26 19
a 26 32
a 26 39
a 26 131
a 26 102
a 26 103
a 26 23
a 26 45
a 26 22
a 26 132
a 26 24
a 26 175
a 26 27
a 26 35
a 68 16
a 68 78
a 68 109
a 68 18
a 68 219
a 68 217
a 78 68
a 78 29
a 78 143
a 78 16
a 78 109
a 78 18
a 78 94
a 78 88
a 78 147
a 78 162
a 78 130
a 219 68
a 219 17
a 219 88
a 217 68
a 217 17
a 217 88
a 217 90
a 217 43
a 217 19
a 217 147
a 217 39
a 217 326
a 217 130
a 134 15
a 134 28
a 134 76
a 134 82
a 134 434
a 134 332
a 134 18
a 134 211
a 134 23
a 168 15
a 168 495
a 168 165
a 168 28
a 168 74
a 168 29
a 168 496
a 168 26
a 168 17
a 168 83
a 168 428
a 168 90
a 168 497
a 168 32
a 168 170
a 168 103
a 168 35
a 168 344
a 168 498
a 168 120
a 168 127
a 168 22
a 168 128
a 168 41
a 168 150
a 168 140
a 168 43
a 168 171
a 168 158
a 168 133
a 47 15
a 47 28
a 47 26
a 47 16
a 47 17
a 47 216
a 47 89
a 47 170
a 47 27
a 47 33
a 47 103
a 47 35
a 47 212
a 47 322
a 47 18
a 47 167
a 47 218
a 47 499
a 47 220
a 47 20
a 47 19
a 47 5
a 47 23
a 118 15
a 118 28
a 118 29
a 118 26
a 118 18
a 118 126
a 118 500
a 19 15
a 19 28
a 19 3
a 19 76
a 19 26
a 19 16
a 19 17
a 19 89
a 19 217
a 19 501
a 19 27
a 19 33
a 19 35
a 19 502
a 19 18
a 19 167
a 19 39
a 19 45
a 19 503
a 19 47
a 19 5
a 19 24
a 132 15
a 132 28
a 132 74
a 132 76
a 132 26
a 132 17
a 132 90
a 132 32
a 132 33
a 132 18
a 163 15
a 163 18
a 163 23
a 27 15
a 27 28
a 27 74
a 27 29
a 27 30
a 27 26
a 27 17
a 27 85
a 27 4
a 27 32
a 27 107
a 27 37
a 27 40
a 27 126
a 27 150
a 27 47
a 27 33
a 27 44
a 27 18
a 27 19
a 27 41
a 27 39
a 27 5
a 27 103
a 27 213
a 27 206
a 27 22
a 27 34
a 27 175
a 106 15
a 106 85
a 106 18
a 106 504
a 505 506
a 506 505
a 506 507
a 495 168
a 242 232
a 477 156
a 189 179
a 189 178
a 192 179
a 192 183
a 192 184
a 188 179
a 188 184
a 188 182
a 188 178
a 188 180
a 188 177
a 187 179
a 187 183
a 187 394
a 187 184
a 187 177
a 187 178
a 187 180
a 187 181
a 187 182
a 187 191
a 153 69
a 153 18
a 139 69
a 139 428
a 139 508
a 139 92
a 139 95
a 139 98
a 139 431
a 139 111
a 139 18
a 139 129
a 139 509
a 139 336
a 75 69
a 75 207
a 75 469
a 75 18
a 75 471
a 75 98
a 75 156
a 75 337
a 75 473
a 75 23
a 75 474
a 476 69
a 476 196
a 476 98
a 476 113
a 127 69
a 127 209
a 127 18
a 127 123
a 127 168
a 87 69
a 87 102
a 87 151
a 87 478
a 87 18
a 474 69
a 474 75
a 474 98
a 474 473
a 474 510
a 474 207
a 474 469
a 474 156
a 474 119
a 474 129
a 511 57
a 57 511
a 57 54
a 57 12
a 57 7
a 346 70
a 346 29
a 346 351
a 346 512
a 346 352
a 346 439
a 346 513
a 346 347
a 346 93
a 346 354
a 346 358
a 346 191
a 346 126
a 346 349
a 346 312
a 346 201
a 213 70
a 213 28
a 213 29
a 213 76
a 213 27
a 213 33
a 213 102
a 213 344
a 128 70
a 128 209
a 128 95
a 128 18
a 128 498
a 128 129
a 128 114
a 128 123
a 128 335
a 128 168
a 206 70
a 206 28
a 206 29
a 206 76
a 206 27
a 206 33
a 206 102
a 206 344
a 206 182
a 42 70
a 42 514
a 42 39
a 42 342
a 42 45
a 42 5
a 79 70
a 79 16
a 79 109
a 79 37
a 79 18
a 79 147
a 79 162
a 71 18
a 515 516
a 515 517
a 515 518
a 515 519
a 516 515
a 517 515
a 517 520
a 517 521
a 518 515
a 518 507
a 519 515
a 324 522
a 324 215
a 324 523
a 324 37
a 324 146
a 324 524
a 324 29
a 522 324
a 522 146
a 523 324
a 523 146
a 146 324
a 146 165
a 146 29
a 146 523
a 146 524
a 146 198
a 146 18
a 146 522
a 146 215
a 146 149
a 524 324
a 524 146
a 475 525
a 475 526
a 475 282
a 525 475
a 526 475
a 526 527
a 465 302
a 77 302
a 77 18
a 77 528
a 466 302
a 467 302
a 165 529
a 165 76
a 165 530
a 165 531
a 165 89
a 165 167
a 165 32
a 165 39
a 165 100
a 165 532
a 165 146
a 165 168
a 165 29
a 165 533
a 529 165
a 529 209
a 529 123
a 530 165
a 530 496
a 530 534
a 530 52
a 530 56
a 531 165
a 531 535
a 531 536
a 532 165
a 533 165
a 533 152
a 537 8
a 537 12
a 8 537
a 8 538
a 8 54
a 8 12
a 8 2
a 8 49
a 8 539
a 8 51
a 8 6
a 8 7
a 12 537
a 12 8
a 12 9
a 12 539
a 12 2
a 12 49
a 12 540
a 12 54
a 12 57
a 12 51
a 12 13
a 12 7
a 541 328
a 328 541
a 328 89
a 328 167
a 142 72
a 142 76
a 142 16
a 142 17
a 142 85
a 142 322
a 142 18
a 142 23
a 142 20
a 142 46
a 542 543
a 542 544
a 542 521
a 542 545
a 542 546
a 542 520
a 542 547
a 542 548
a 543 542
a 543 520
a 543 521
a 543 544
a 543 546
a 543 545
a 543 547
a 543 549
a 544 542
a 544 520
a 544 521
a 544 543
a 544 545
a 544 546
a 544 547
a 544 548
a 544 549
a 521 542
a 521 520
a 521 517
a 521 543
a 521 544
a 521 550
a 521 545
a 521 546
a 521 548
a 521 547
a 521 549
a 521 551
a 545 542
a 545 520
a 545 521
a 545 544
a 545 543
a 545 546
a 545 504
a 545 547
a 546 542
a 546 520
a 546 521
a 546 544
a 546 543
a 546 549
a 546 545
a 546 547
a 520 542
a 520 517
a 520 543
a 520 521
a 520 545
a 520 546
a 520 548
a 520 547
a 520 544
a 547 542
a 547 520
a 547 521
a 547 544
a 547 543
a 547 549
a 547 546
a 547 545
a 548 542
a 548 520
a 548 521
a 548 544
a 548 552
a 548 549
a 548 551
a 30 28
a 30 29
a 30 18
a 30 147
a 30 76
a 30 39
a 30 5
a 30 126
a 30 27
a 30 105
a 85 28
a 85 73
a 85 76
a 85 16
a 85 17
a 85 304
a 85 322
a 85 20
a 85 553
a 85 43
a 85 44
a 85 18
a 85 41
a 85 32
a 85 157
a 85 218
a 85 142
a 85 23
a 85 24
a 85 27
a 85 106
a 85 35
a 114 28
a 114 26
a 114 17
a 114 18
a 114 128
a 114 150
a 114 140
a 345 28
a 345 209
a 345 123
a 216 28
a 216 17
a 216 33
a 216 35
a 216 147
a 216 40
a 216 39
a 216 47
a 216 90
a 216 150
a 33 28
a 33 26
a 33 16
a 33 17
a 33 216
a 33 89
a 33 438
a 33 170
a 33 27
a 33 107
a 33 37
a 33 166
a 33 285
a 33 167
a 33 503
a 33 137
a 33 47
a 33 18
a 33 19
a 33 123
a 33 5
a 33 103
a 33 213
a 33 23
a 33 45
a 33 206
a 33 22
a 33 132
a 33 220
a 33 325
a 33 175
a 46 28
a 46 496
a 46 16
a 46 17
a 46 354
a 46 18
a 46 142
a 46 37
a 46 20
a 46 43
a 46 489
a 46 45
a 46 215
a 46 5
a 46 23
a 131 28
a 131 26
a 131 86
a 131 95
a 131 32
a 131 35
a 131 18
a 131 123
a 131 150
a 74 28
a 74 18
a 74 22
a 74 132
a 74 168
a 74 27
a 22 28
a 22 3
a 22 74
a 22 26
a 22 16
a 22 17
a 22 209
a 22 497
a 22 32
a 22 170
a 22 27
a 22 33
a 22 18
a 22 554
a 22 147
a 22 37
a 22 168
a 22 20
a 22 43
a 22 169
a 22 123
a 22 5
a 22 23
a 22 220
a 24 28
a 24 3
a 24 76
a 24 26
a 24 17
a 24 85
a 24 555
a 24 34
a 24 107
a 24 110
a 24 18
a 24 147
a 24 38
a 24 116
a 24 39
a 24 130
a 24 40
a 24 41
a 24 43
a 24 44
a 24 145
a 24 19
a 24 5
a 325 28
a 325 33
a 325 37
a 195 28
a 195 556
a 195 76
a 195 202
a 195 145
a 195 198
a 195 197
a 195 494
a 382 373
a 382 93
a 93 382
a 93 18
a 93 346
a 93 191
a 93 201
a 21 3
a 21 557
a 25 3
a 25 18
a 25 304
a 73 18
a 73 85
a 556 195
a 207 75
a 207 185
a 207 474
a 258 244
a 258 232
a 289 244
a 289 277
a 289 232
a 350 201
a 558 559
a 559 558
a 559 486
a 559 560
a 559 561
a 559 562
a 107 29
a 107 16
a 107 27
a 107 33
a 107 322
a 107 342
a 107 115
a 107 39
a 107 166
a 107 18
a 107 338
a 107 23
a 107 24
a 107 175
a 107 340
a 338 29
a 338 82
a 338 107
a 338 157
a 312 29
a 312 76
a 312 353
a 312 105
a 312 322
a 312 346
a 312 147
a 312 20
a 312 215
a 312 39
a 312 563
a 312 201
a 334 29
a 334 103
a 334 514
a 334 39
a 334 425
a 333 29
a 333 39
a 333 103
a 333 514
a 333 45
a 41 29
a 41 17
a 41 85
a 41 27
a 41 564
a 41 18
a 41 37
a 41 116
a 41 218
a 41 130
a 41 215
a 41 162
a 41 5
a 41 23
a 41 24
a 41 168
a 329 29
a 329 89
a 329 34
a 329 167
a 329 126
a 347 29
a 347 565
a 347 352
a 347 346
a 347 358
a 347 473
a 347 126
a 347 566
a 347 201
a 348 29
a 348 337
a 348 126
a 133 29
a 133 18
a 133 121
a 133 168
a 133 152
a 349 29
a 349 439
a 349 354
a 349 346
a 349 356
a 349 191
a 349 201
a 349 126
a 340 29
a 340 82
a 340 107
a 340 157
a 351 346
a 351 199
a 351 201
a 199 351
a 199 355
a 199 359
a 199 360
a 199 145
a 199 201
a 393 76
a 394 76
a 394 337
a 394 187
a 332 76
a 332 134
a 332 39
a 166 76
a 166 17
a 166 32
a 166 214
a 166 33
a 166 107
a 166 39
a 218 76
a 218 17
a 218 85
a 218 147
a 218 39
a 218 41
a 218 47
a 218 130
a 218 125
a 528 77
a 528 567
a 528 568
a 94 78
a 94 16
a 94 90
a 94 143
a 94 109
a 94 18
a 94 45
a 94 297
a 377 372
a 377 379
a 377 373
a 378 372
a 378 379
a 379 372
a 379 378
a 379 377
a 379 373
a 379 374
a 379 380
a 380 372
a 380 379
a 380 373
a 569 570
a 570 569
a 570 557
a 274 245
a 274 571
a 274 269
a 274 232
a 246 245
a 246 232
a 246 269
a 246 470
a 246 261
a 572 426
a 426 572
a 426 428
a 426 425
a 573 356
a 573 191
a 356 573
a 356 439
a 356 354
a 356 191
a 356 349
a 356 201
a 191 573
a 191 512
a 191 352
a 191 439
a 191 429
a 191 93
a 191 354
a 191 187
a 191 346
a 191 356
a 191 178
a 191 349
a 191 201
a 496 111
a 496 46
a 496 574
a 496 530
a 496 171
a 496 168
a 111 496
a 111 18
a 111 139
a 111 152
a 111 171
a 574 496
a 171 496
a 171 83
a 171 32
a 171 111
a 171 344
a 171 121
a 171 168
a 411 404
a 411 401
a 411 418
a 261 246
a 261 250
a 261 255
a 261 275
a 261 269
a 261 294
a 261 232
a 261 268
a 261 263
a 117 26
a 117 170
a 117 18
a 117 45
a 117 23
a 45 26
a 45 88
a 45 90
a 45 94
a 45 333
a 45 33
a 45 103
a 45 322
a 45 18
a 45 147
a 45 37
a 45 38
a 45 117
a 45 42
a 45 46
a 45 19
a 45 5
a 175 26
a 175 17
a 175 92
a 175 27
a 175 33
a 175 35
a 175 107
a 175 121
a 80 20
a 80 215
a 80 355
a 80 18
a 80 330
a 80 201
a 355 80
a 355 575
a 355 359
a 355 360
a 355 199
a 355 201
a 330 80
a 330 513
a 330 201
a 330 215
a 90 16
a 90 216
a 90 435
a 90 217
a 90 304
a 90 44
a 90 18
a 90 94
a 90 45
a 90 132
a 90 23
a 90 335
a 90 168
a 90 103
a 101 16
a 101 18
a 141 16
a 141 197
a 141 18
a 220 17
a 220 33
a 220 22
a 220 47
a 512 346
a 512 191
a 576 571
a 571 576
a 571 52
a 571 56
a 571 274
a 565 347
a 565 577
a 565 566
a 565 578
a 565 579
a 577 565
a 577 578
a 577 566
a 566 565
a 566 347
a 566 577
a 578 565
a 578 577
a 579 565
a 580 581
a 580 582
a 581 580
a 582 580
a 582 318
a 557 21
a 557 570
a 557 583
a 583 557
a 81 18
a 313 309
a 314 309
a 315 309
a 315 305
a 316 309
a 316 412
a 316 238
a 316 305
a 316 584
a 317 309
a 317 252
a 317 585
a 317 450
a 318 309
a 318 255
a 318 448
a 318 582
a 318 449
a 585 317
a 585 586
a 450 317
a 450 451
a 450 444
a 450 445
a 450 452
a 247 232
a 412 413
a 412 401
a 412 226
a 412 404
a 412 316
a 412 418
a 412 416
a 413 412
a 413 404
a 413 401
a 413 407
a 226 412
a 226 414
a 226 415
a 226 416
a 226 423
a 226 424
a 226 418
a 226 419
a 226 404
a 226 421
a 226 225
a 226 401
a 226 407
a 416 412
a 416 401
a 416 420
a 416 226
a 416 421
a 416 423
a 416 404
a 416 418
a 352 347
a 352 346
a 352 191
a 352 429
a 352 201
a 429 352
a 429 428
a 429 92
a 429 191
a 429 431
a 429 159
a 429 587
a 279 248
a 279 267
a 279 232
a 260 248
a 260 253
a 260 232
a 271 248
a 271 232
a 387 385
a 387 504
a 504 387
a 504 588
a 504 106
a 504 545
a 504 589
a 303 298
a 303 301
a 303 300
a 113 476
a 113 196
a 113 18
a 83 18
a 83 168
a 83 171
a 83 103
a 84 18
a 84 201
a 538 8
a 538 590
a 538 49
a 538 51
a 54 8
a 54 57
a 54 12
a 54 7
a 49 8
a 49 9
a 49 538
a 49 12
a 49 11
a 49 51
a 49 6
a 49 50
a 539 8
a 539 50
a 539 12
a 539 51
a 51 8
a 51 9
a 51 539
a 51 49
a 51 50
a 51 6
a 51 12
a 51 538
a 51 11
a 51 13
a 51 7
a 428 591
a 428 426
a 428 592
a 428 92
a 428 139
a 428 429
a 428 431
a 428 168
a 591 428
a 592 428
a 431 428
a 431 429
a 431 92
a 431 139
a 431 159
a 431 587
a 553 85
a 233 228
a 233 229
a 233 234
a 233 236
a 233 231
a 233 239
a 234 228
a 234 238
a 234 233
a 234 232
a 234 421
a 234 236
a 234 231
a 235 228
a 235 238
a 235 231
a 236 228
a 236 238
a 236 234
a 236 231
a 236 233
a 86 18
a 86 131
a 151 87
a 151 473
a 151 18
a 478 87
a 478 156
a 250 290
a 250 255
a 250 232
a 250 270
a 250 463
a 250 261
a 270 250
a 270 251
a 270 255
a 270 472
a 270 232
a 270 284
a 270 290
a 593 58
a 593 53
a 593 55
a 58 593
a 58 7
a 53 593
a 53 7
a 55 593
a 55 7
a 513 594
a 513 346
a 513 330
a 594 513
a 594 595
a 123 88
a 123 529
a 123 33
a 123 18
a 123 596
a 123 37
a 123 127
a 123 22
a 123 345
a 123 128
a 123 131
a 123 136
a 123 43
a 123 140
a 209 88
a 209 43
a 209 529
a 209 37
a 209 128
a 209 22
a 209 140
a 209 136
a 209 102
a 209 127
a 209 596
a 209 345
a 137 89
a 137 31
a 137 497
a 137 33
a 137 18
a 137 167
a 508 139
a 508 430
a 430 508
a 430 92
a 159 429
a 159 92
a 159 32
a 159 431
a 159 587
a 159 18
a 159 597
a 587 429
a 587 431
a 587 159
a 587 598
a 140 209
a 140 95
a 140 18
a 140 396
a 140 129
a 140 136
a 140 168
a 140 123
a 140 114
a 140 23
a 136 209
a 136 18
a 136 396
a 136 498
a 136 123
a 136 140
a 136 150
a 596 209
a 596 123
a 435 90
a 435 116
a 335 90
a 335 39
a 335 128
a 555 24
a 326 217
a 326 147
a 91 18
a 91 336
a 486 559
a 486 272
a 486 562
a 560 559
a 561 559
a 562 559
a 562 486
a 99 92
a 99 18
a 99 23
a 99 336
a 99 155
a 414 415
a 414 226
a 414 404
a 414 401
a 414 421
a 415 414
a 415 401
a 415 226
a 415 404
a 415 407
a 415 418
a 358 347
a 358 198
a 358 346
a 358 201
a 455 451
a 455 445
a 455 452
a 456 451
a 456 445
a 456 448
a 9 12
a 9 2
a 9 49
a 9 51
a 9 7
a 202 195
a 202 198
a 202 491
a 202 599
a 202 368
a 202 200
a 202 112
a 202 145
a 494 195
a 494 198
a 420 416
a 420 418
a 420 404
a 420 401
a 423 416
a 423 405
a 423 226
a 423 421
a 423 418
a 595 594
a 550 521
a 550 211
a 549 521
a 549 544
a 549 543
a 549 548
a 549 546
a 549 600
a 549 547
a 551 521
a 551 548
a 535 531
a 285 31
a 285 33
a 285 277
a 285 232
a 442 31
a 442 601
a 96 18
a 353 563
a 353 312
a 353 201
a 563 353
a 563 312
a 237 229
a 238 253
a 238 234
a 238 235
a 238 236
a 238 602
a 238 239
a 238 231
a 238 316
a 357 253
a 357 201
a 97 18
a 97 32
a 97 425
a 97 100
a 97 23
a 501 19
a 203 182
a 534 530
a 52 530
a 52 100
a 52 571
a 52 148
a 52 147
a 52 39
a 52 130
a 52 7
a 56 530
a 56 100
a 56 571
a 56 147
a 56 39
a 56 130
a 56 148
a 56 7
a 319 310
a 383 375
a 383 373
a 383 603
a 602 238
a 239 238
a 239 231
a 239 233
a 497 22
a 497 137
a 497 168
a 567 528
a 567 568
a 568 567
a 568 604
a 568 528
a 112 196
a 112 365
a 112 18
a 112 202
a 108 32
a 108 18
a 169 32
a 169 597
a 169 22
a 190 184
a 190 182
a 190 178
a 441 438
a 366 364
a 256 232
a 256 290
a 256 272
a 514 333
a 514 42
a 514 334
a 590 538
a 590 605
a 605 590
a 605 586
a 483 473
a 48 11
a 48 586
a 48 6
a 11 48
a 11 2
a 11 49
a 11 51
a 11 7
a 586 48
a 586 585
a 586 605
a 257 232
a 257 266
a 257 291
a 266 257
a 266 232
a 291 257
a 291 463
a 291 232
a 291 290
a 148 52
a 148 18
a 148 56
a 148 23
a 172 174
a 172 121
a 174 172
a 174 121
a 606 607
a 606 311
a 607 606
a 607 311
a 607 608
a 311 606
a 311 607
a 311 307
a 311 608
a 564 41
a 507 518
a 507 506
a 457 446
a 552 548
a 608 311
a 608 607
a 584 316
a 503 33
a 503 19
a 588 504
a 50 539
a 50 49
a 50 6
a 50 51
a 50 7
a 600 549
a 491 197
a 491 200
a 491 202
a 492 197
a 493 197
a 493 609
a 200 197
a 200 491
a 200 145
a 200 202
a 354 346
a 354 610
a 354 46
a 354 356
a 354 191
a 354 349
a 354 201
a 610 354
a 152 102
a 152 103
a 152 111
a 152 18
a 152 533
a 152 205
a 152 23
a 152 133
a 152 611
a 210 102
a 211 102
a 211 134
a 211 550
a 212 102
a 212 47
a 342 103
a 342 107
a 342 42
a 138 103
a 138 18
a 343 103
a 38 103
a 38 18
a 38 215
a 38 45
a 38 5
a 38 23
a 38 24
a 344 103
a 344 213
a 344 171
a 344 168
a 344 206
a 612 613
a 613 612
a 613 614
a 104 18
a 391 305
a 510 474
a 115 107
a 115 18
a 502 19
a 598 587
a 259 232
a 417 404
a 417 401
a 424 226
a 424 407
a 36 18
a 36 615
a 36 5
a 119 18
a 119 474
a 120 18
a 120 168
a 122 18
a 122 155
a 124 18
a 135 18
a 149 18
a 149 146
a 160 18
a 161 18
a 388 385
a 597 159
a 597 169
a 615 36
a 204 182
a 10 2
a 13 2
a 13 6
a 13 12
a 13 51
a 13 7
a 575 355
a 359 355
a 359 199
a 359 201
a 359 360
a 360 355
a 360 199
a 360 201
a 360 359
a 554 22
a 396 136
a 396 616
a 396 150
a 396 140
a 616 396
a 599 341
a 599 202
a 341 599
a 341 157
a 341 617
a 223 221
a 223 154
a 223 222
a 327 147
a 275 261
a 275 288
a 275 232
a 275 290
a 275 286
a 275 463
a 294 261
a 294 463
a 294 283
a 294 232
a 268 261
a 268 282
a 268 232
a 268 290
a 268 287
a 268 463
a 262 232
a 262 277
a 498 136
a 498 128
a 498 168
a 205 182
a 205 152
a 484 154
a 320 310
a 331 43
a 603 383
a 603 618
a 422 418
a 422 404
a 422 401
a 540 12
a 173 121
a 419 404
a 419 226
a 419 421
a 419 401
a 460 368
a 500 118
a 604 568
a 339 157
a 614 613
a 614 361
a 614 619
a 361 614
a 361 201
a 619 614
a 509 139
a 499 620
a 499 47
a 620 499
a 485 292
a 367 364
a 427 425
a 479 290
a 611 152
a 601 442
a 609 493
a 536 531
a 618 603
a 280 277
a 280 232
a 278 232
a 278 290
a 617 341
a 589 504
a 296 463
a 296 232
a 296 290
a 362 201
a 527 526
a 395 126
a 293 232
a 480 290
a 481 290
a 482 290
a 389 385
a 390 385
