p sp 1613 9124
a 1 2
a 1 3
a 1 4
a 1 5
a 1 6
a 2 1
a 2 4
a 2 3
a 2 6
a 3 1
a 3 4
a 3 2
a 3 6
a 3 7
a 3 8
a 4 1
a 4 2
a 4 3
a 4 9
a 4 6
a 4 10
a 4 11
a 4 7
a 4 12
a 4 13
a 5 1
a 5 14
a 6 1
a 6 4
a 6 2
a 6 3
a 15 16
a 15 11
a 16 15
a 16 17
a 16 18
a 11 15
a 11 10
a 11 19
a 11 4
a 11 20
a 11 8
a 10 9
a 10 8
a 10 21
a 10 11
a 10 19
a 10 4
a 10 22
a 9 10
a 9 4
a 9 19
a 9 22
a 9 23
a 9 24
a 9 25
a 9 26
a 9 21
a 9 27
a 9 28
a 9 29
a 8 10
a 8 3
a 8 30
a 8 24
a 8 13
a 8 11
a 8 31
a 8 20
a 8 21
a 8 32
a 8 33
a 8 34
a 21 10
a 21 22
a 21 35
a 21 8
a 21 9
a 21 36
a 21 37
a 21 38
a 21 39
a 21 40
a 21 41
a 19 10
a 19 11
a 19 17
a 19 9
a 19 22
a 19 42
a 19 24
a 19 34
a 19 43
a 19 44
a 19 45
a 19 46
a 47 48
a 47 31
a 47 49
a 47 50
a 47 51
a 47 52
a 47 53
a 47 54
a 47 55
a 48 47
a 48 18
a 31 47
a 31 49
a 31 56
a 31 35
a 31 24
a 31 8
a 49 47
a 49 31
a 49 50
a 49 20
a 49 57
a 49 35
a 49 51
a 49 58
a 49 59
a 49 43
a 49 56
a 49 60
a 49 61
a 49 62
a 14 5
a 17 16
a 17 63
a 17 19
a 63 17
a 63 32
a 63 64
a 63 65
a 32 63
a 32 64
a 32 66
a 32 33
a 32 24
a 32 65
a 32 67
a 32 8
a 64 63
a 64 32
a 7 3
a 7 68
a 7 4
a 7 12
a 7 13
a 69 40
a 69 25
a 69 70
a 69 39
a 69 71
a 69 59
a 69 36
a 69 26
a 69 72
a 69 73
a 40 69
a 40 74
a 40 39
a 40 71
a 40 27
a 40 21
a 40 73
a 40 26
a 22 10
a 22 19
a 22 9
a 22 21
a 22 23
a 22 75
a 22 76
a 22 77
a 50 47
a 50 56
a 50 78
a 50 20
a 50 49
a 50 79
a 50 80
a 50 43
a 50 81
a 50 82
a 50 83
a 50 44
a 50 84
a 50 85
a 56 31
a 56 51
a 56 50
a 56 35
a 56 59
a 56 61
a 56 49
a 56 84
a 56 62
a 56 86
a 87 66
a 87 65
a 66 87
a 66 32
a 66 88
a 18 48
a 18 16
a 68 7
a 12 7
a 12 30
a 12 4
a 13 7
a 13 30
a 13 4
a 13 8
a 30 12
a 30 13
a 30 8
a 25 69
a 25 89
a 25 23
a 25 9
a 35 31
a 35 56
a 35 51
a 35 49
a 35 21
a 90 74
a 74 90
a 74 40
a 65 87
a 65 63
a 65 91
a 65 33
a 65 24
a 65 32
a 65 92
a 65 93
a 51 56
a 51 35
a 51 52
a 51 47
a 51 49
a 88 66
a 89 25
a 23 25
a 23 9
a 23 94
a 23 26
a 23 52
a 23 22
a 23 28
a 23 76
a 94 23
a 78 50
a 20 50
a 20 49
a 20 11
a 20 8
a 20 95
a 20 96
a 24 8
a 24 9
a 24 97
a 24 33
a 24 31
a 24 65
a 24 32
a 24 19
a 24 28
a 24 34
a 24 96
a 52 51
a 52 47
a 52 23
a 79 81
a 79 82
a 79 50
a 79 80
a 79 43
a 81 79
a 81 80
a 81 43
a 81 50
a 81 82
a 81 44
a 81 54
a 82 79
a 82 80
a 82 43
a 82 81
a 82 50
a 82 44
a 82 42
a 82 62
a 82 98
a 82 95
a 82 55
a 82 99
a 82 100
a 82 101
a 82 102
a 82 103
a 82 104
a 82 105
a 82 106
a 82 107
a 82 108
a 82 109
a 80 79
a 80 81
a 80 50
a 80 43
a 80 82
a 43 79
a 43 80
a 43 81
a 43 50
a 43 82
a 43 44
a 43 49
a 43 19
a 70 69
a 70 26
a 39 69
a 39 27
a 39 40
a 39 71
a 39 38
a 39 110
a 39 21
a 71 69
a 71 39
a 71 40
a 91 65
a 97 24
a 33 32
a 33 24
a 33 65
a 33 8
a 26 70
a 26 23
a 26 9
a 26 111
a 26 69
a 26 36
a 26 41
a 26 40
a 111 26
a 112 113
a 112 58
a 113 112
a 113 57
a 113 58
a 113 86
a 113 114
a 113 53
a 58 112
a 58 57
a 58 113
a 58 49
a 115 27
a 27 115
a 27 39
a 27 9
a 27 40
a 116 67
a 67 116
a 67 32
a 57 113
a 57 58
a 57 49
a 117 42
a 117 36
a 117 118
a 42 117
a 42 36
a 42 118
a 42 82
a 42 19
a 36 117
a 36 69
a 36 37
a 36 26
a 36 21
a 36 118
a 36 42
a 36 119
a 36 45
a 36 46
a 36 120
a 118 117
a 118 36
a 118 42
a 59 69
a 59 49
a 59 61
a 59 56
a 59 72
a 59 62
a 59 121
a 59 122
a 59 92
a 59 98
a 72 69
a 72 59
a 72 123
a 61 59
a 61 56
a 61 86
a 61 62
a 61 49
a 62 59
a 62 56
a 62 86
a 62 61
a 62 49
a 62 82
a 62 55
a 62 114
a 62 60
a 62 124
a 62 125
a 62 126
a 62 54
a 62 127
a 62 128
a 62 129
a 62 130
a 62 131
a 62 132
a 62 133
a 62 134
a 62 100
a 62 135
a 62 136
a 37 36
a 37 41
a 37 21
a 37 110
a 44 43
a 44 82
a 44 50
a 44 81
a 44 19
a 44 137
a 44 98
a 44 95
a 44 122
a 44 100
a 44 138
a 53 47
a 53 86
a 53 114
a 53 113
a 53 55
a 53 139
a 53 140
a 53 141
a 34 19
a 34 24
a 34 92
a 34 8
a 73 110
a 73 142
a 73 69
a 73 40
a 110 73
a 110 39
a 110 142
a 110 37
a 110 41
a 142 73
a 142 110
a 41 37
a 41 143
a 41 21
a 41 55
a 41 26
a 41 110
a 83 85
a 83 50
a 83 84
a 83 144
a 83 145
a 85 83
a 85 50
a 85 84
a 84 83
a 84 56
a 84 50
a 84 85
a 84 146
a 143 55
a 143 41
a 55 143
a 55 54
a 55 41
a 55 53
a 55 62
a 55 47
a 55 147
a 55 148
a 55 149
a 55 121
a 55 150
a 55 92
a 55 82
a 55 151
a 55 152
a 55 153
a 55 154
a 55 155
a 54 55
a 54 47
a 54 81
a 54 126
a 54 62
a 86 56
a 86 61
a 86 53
a 86 113
a 86 62
a 86 114
a 86 60
a 86 145
a 86 126
a 86 127
a 86 100
a 86 138
a 86 98
a 86 156
a 86 157
a 86 158
a 86 159
a 86 160
a 86 161
a 86 162
a 86 163
a 86 164
a 38 21
a 38 39
a 123 72
a 29 28
a 29 75
a 29 9
a 28 29
a 28 23
a 28 24
a 28 9
a 28 147
a 28 148
a 28 165
a 114 86
a 114 53
a 114 113
a 114 62
a 114 60
a 114 166
a 96 24
a 96 20
a 60 49
a 60 86
a 60 62
a 60 114
a 95 20
a 95 125
a 95 167
a 95 98
a 95 44
a 95 82
a 92 65
a 92 34
a 92 93
a 92 168
a 92 121
a 92 59
a 92 169
a 92 122
a 92 55
a 92 170
a 92 171
a 92 172
a 92 173
a 92 174
a 92 151
a 92 175
a 92 176
a 93 92
a 93 65
a 119 45
a 119 36
a 45 119
a 45 46
a 45 36
a 45 19
a 144 83
a 144 177
a 144 75
a 146 84
a 139 53
a 139 140
a 140 53
a 140 139
a 141 53
a 178 46
a 178 120
a 46 178
a 46 45
a 46 120
a 46 36
a 46 19
a 120 178
a 120 46
a 120 36
a 76 23
a 76 22
a 75 22
a 75 77
a 75 29
a 75 144
a 77 75
a 77 22
a 179 124
a 179 125
a 179 137
a 124 179
a 124 62
a 125 179
a 125 137
a 125 95
a 125 62
a 137 179
a 137 44
a 137 125
a 177 144
a 168 92
a 145 86
a 145 83
a 166 114
a 166 150
a 166 180
a 166 181
a 166 182
a 166 130
a 166 183
a 166 184
a 121 167
a 121 92
a 121 55
a 121 59
a 121 98
a 121 172
a 121 185
a 121 153
a 121 174
a 121 186
a 121 187
a 121 188
a 121 189
a 121 190
a 121 191
a 121 192
a 121 193
a 121 194
a 121 195
a 121 196
a 121 197
a 167 121
a 167 198
a 167 95
a 147 55
a 147 165
a 147 199
a 147 148
a 147 28
a 147 182
a 147 200
a 147 201
a 147 184
a 147 197
a 147 202
a 165 147
a 165 28
a 199 147
a 148 147
a 148 55
a 148 28
a 148 149
a 198 167
a 198 122
a 149 148
a 149 55
a 150 182
a 150 181
a 150 166
a 150 130
a 150 200
a 150 55
a 182 150
a 182 181
a 182 166
a 182 130
a 182 147
a 182 200
a 182 184
a 182 203
a 182 204
a 182 197
a 181 150
a 181 182
a 181 130
a 181 166
a 130 150
a 130 180
a 130 181
a 130 166
a 130 182
a 130 62
a 130 100
a 130 129
a 130 203
a 130 138
a 98 44
a 98 95
a 98 82
a 98 121
a 98 59
a 98 205
a 98 138
a 98 206
a 98 156
a 98 86
a 127 207
a 127 208
a 127 200
a 127 86
a 127 209
a 127 185
a 127 128
a 127 62
a 127 99
a 127 129
a 207 127
a 126 86
a 126 54
a 126 62
a 180 130
a 180 166
a 183 166
a 183 184
a 184 166
a 184 183
a 184 200
a 184 182
a 184 201
a 184 203
a 184 147
a 184 197
a 184 210
a 184 129
a 122 198
a 122 59
a 122 44
a 122 92
a 208 127
a 200 147
a 200 127
a 200 182
a 200 184
a 200 150
a 100 44
a 100 86
a 100 99
a 100 211
a 100 130
a 100 82
a 100 132
a 100 133
a 100 62
a 100 203
a 100 138
a 100 134
a 100 212
a 100 185
a 100 161
a 100 213
a 100 214
a 169 215
a 169 92
a 215 169
a 170 172
a 170 171
a 170 92
a 170 216
a 170 188
a 170 189
a 170 187
a 170 217
a 170 218
a 172 170
a 172 171
a 172 121
a 172 92
a 172 216
a 172 185
a 171 170
a 171 92
a 171 172
a 171 216
a 216 170
a 216 171
a 216 172
a 216 219
a 216 220
a 205 138
a 205 206
a 205 98
a 138 205
a 138 98
a 138 44
a 138 86
a 138 206
a 138 156
a 138 203
a 138 100
a 138 221
a 138 130
a 138 222
a 138 211
a 138 223
a 138 224
a 138 225
a 206 205
a 206 209
a 206 98
a 206 185
a 206 138
a 206 176
a 206 173
a 206 154
a 206 155
a 151 55
a 151 219
a 151 226
a 151 227
a 151 153
a 151 107
a 151 92
a 151 175
a 151 228
a 151 229
a 151 187
a 151 230
a 219 151
a 219 227
a 219 226
a 219 216
a 219 220
a 219 231
a 219 232
a 219 233
a 219 107
a 219 193
a 219 234
a 219 235
a 219 104
a 219 236
a 219 237
a 219 238
a 219 239
a 219 240
a 219 241
a 219 242
a 219 243
a 219 244
a 219 245
a 219 246
a 219 247
a 219 189
a 219 248
a 219 249
a 219 250
a 219 251
a 219 252
a 219 253
a 219 254
a 219 255
a 219 256
a 219 257
a 226 151
a 226 227
a 226 220
a 226 219
a 226 258
a 226 259
a 226 260
a 227 151
a 227 219
a 227 226
a 209 127
a 209 185
a 209 206
a 185 209
a 185 121
a 185 127
a 185 172
a 185 128
a 185 206
a 185 100
a 261 262
a 261 263
a 261 264
a 261 265
a 261 266
a 262 261
a 262 267
a 128 127
a 128 185
a 128 62
a 128 197
a 99 127
a 99 100
a 99 82
a 99 234
a 99 231
a 99 268
a 99 232
a 99 269
a 99 233
a 129 127
a 129 62
a 129 130
a 129 184
a 129 197
a 267 262
a 220 226
a 220 216
a 220 219
a 201 147
a 201 197
a 201 184
a 201 270
a 201 271
a 201 272
a 201 106
a 201 273
a 201 274
a 201 275
a 201 276
a 201 193
a 197 201
a 197 203
a 197 204
a 197 128
a 197 184
a 197 182
a 197 147
a 197 277
a 197 278
a 197 210
a 197 279
a 197 280
a 197 270
a 197 129
a 197 281
a 197 282
a 197 283
a 197 121
a 197 192
a 197 194
a 203 204
a 203 182
a 203 197
a 203 184
a 203 284
a 203 210
a 203 100
a 203 138
a 203 130
a 203 282
a 203 285
a 203 286
a 204 203
a 204 182
a 204 197
a 211 100
a 211 287
a 211 161
a 211 288
a 211 138
a 277 289
a 277 278
a 277 280
a 277 279
a 277 290
a 277 291
a 277 197
a 289 277
a 289 290
a 289 291
a 278 277
a 278 279
a 278 280
a 278 197
a 280 277
a 280 278
a 280 279
a 280 197
a 279 277
a 279 278
a 279 153
a 279 280
a 279 225
a 279 292
a 279 197
a 279 293
a 279 274
a 279 281
a 279 283
a 279 294
a 279 295
a 279 296
a 279 297
a 279 298
a 279 188
a 290 277
a 290 289
a 290 291
a 291 277
a 291 289
a 291 290
a 284 203
a 284 282
a 282 284
a 282 299
a 282 203
a 282 197
a 282 300
a 153 151
a 153 121
a 153 279
a 153 55
a 153 107
a 153 225
a 107 151
a 107 153
a 107 106
a 107 301
a 107 302
a 107 303
a 107 304
a 107 219
a 107 193
a 107 82
a 107 108
a 107 109
a 188 170
a 188 225
a 188 305
a 188 186
a 188 187
a 188 121
a 188 306
a 188 191
a 188 297
a 188 298
a 188 279
a 188 232
a 188 307
a 188 308
a 188 309
a 188 310
a 188 311
a 188 312
a 306 133
a 306 305
a 306 225
a 306 188
a 133 306
a 133 132
a 133 62
a 133 100
a 133 135
a 133 134
a 174 121
a 174 92
a 313 103
a 313 109
a 103 313
a 103 101
a 103 102
a 103 109
a 103 314
a 103 104
a 103 82
a 103 105
a 109 313
a 109 103
a 109 315
a 109 316
a 109 106
a 109 218
a 109 107
a 109 108
a 109 82
a 109 317
a 109 318
a 109 319
a 109 320
a 109 230
a 109 321
a 109 322
a 109 323
a 109 324
a 109 325
a 109 326
a 109 327
a 202 147
a 202 328
a 202 283
a 329 135
a 329 131
a 135 329
a 135 131
a 135 132
a 135 133
a 135 134
a 135 62
a 131 329
a 131 156
a 131 62
a 131 135
a 156 131
a 156 98
a 156 86
a 156 138
a 152 155
a 152 55
a 152 154
a 155 152
a 155 176
a 155 173
a 155 154
a 155 206
a 155 55
a 154 152
a 154 176
a 154 173
a 154 155
a 154 55
a 154 206
a 132 100
a 132 135
a 132 62
a 132 287
a 132 133
a 132 134
a 132 330
a 287 132
a 287 134
a 287 211
a 134 132
a 134 133
a 134 287
a 134 62
a 134 135
a 134 104
a 134 100
a 134 331
a 134 332
a 134 333
a 134 213
a 134 161
a 134 158
a 134 235
a 176 155
a 176 154
a 176 206
a 176 173
a 176 92
a 173 176
a 173 155
a 173 92
a 173 154
a 173 206
a 210 203
a 210 197
a 210 184
a 299 282
a 101 102
a 101 103
a 101 104
a 101 82
a 102 101
a 102 103
a 102 104
a 102 82
a 102 334
a 102 335
a 102 336
a 102 337
a 104 101
a 104 102
a 104 314
a 104 103
a 104 82
a 104 134
a 104 233
a 104 105
a 104 338
a 104 232
a 104 213
a 104 339
a 104 340
a 104 341
a 104 189
a 104 237
a 104 238
a 104 219
a 225 153
a 225 188
a 225 279
a 225 305
a 225 342
a 225 306
a 225 224
a 225 138
a 292 279
a 292 293
a 292 295
a 293 279
a 293 292
a 221 138
a 270 197
a 270 201
a 314 103
a 314 104
a 316 315
a 316 109
a 316 106
a 316 218
a 316 343
a 316 344
a 315 316
a 315 175
a 315 303
a 315 218
a 315 109
a 315 345
a 315 346
a 175 315
a 175 151
a 175 218
a 175 186
a 175 190
a 175 303
a 175 108
a 175 92
a 303 315
a 303 218
a 303 175
a 303 108
a 303 319
a 303 190
a 303 301
a 303 107
a 108 347
a 108 218
a 108 175
a 108 319
a 108 190
a 108 303
a 108 106
a 108 107
a 108 109
a 108 82
a 347 108
a 347 348
a 347 349
a 218 315
a 218 170
a 218 175
a 218 319
a 218 190
a 218 303
a 218 108
a 218 187
a 218 106
a 218 316
a 218 109
a 218 350
a 189 170
a 189 121
a 189 217
a 189 193
a 189 351
a 189 352
a 189 353
a 189 298
a 189 354
a 189 104
a 189 355
a 189 356
a 189 357
a 189 236
a 189 358
a 189 359
a 189 360
a 189 361
a 189 362
a 189 363
a 189 246
a 189 219
a 187 170
a 187 218
a 187 186
a 187 188
a 187 121
a 187 191
a 187 151
a 187 228
a 217 170
a 217 189
a 217 364
a 217 351
a 319 218
a 319 365
a 319 108
a 319 303
a 319 190
a 319 193
a 319 366
a 319 106
a 319 367
a 319 298
a 319 318
a 319 109
a 319 368
a 190 218
a 190 186
a 190 175
a 190 121
a 190 108
a 190 303
a 190 319
a 274 369
a 274 370
a 274 371
a 274 296
a 274 279
a 274 295
a 274 372
a 274 275
a 274 106
a 274 201
a 274 373
a 274 374
a 274 375
a 274 358
a 274 360
a 369 274
a 369 371
a 369 370
a 369 296
a 370 274
a 370 371
a 370 369
a 370 296
a 371 274
a 371 369
a 371 370
a 371 296
a 296 274
a 296 371
a 296 370
a 296 369
a 296 191
a 296 279
a 222 138
a 222 223
a 223 222
a 223 138
a 305 188
a 305 306
a 305 342
a 305 225
a 305 376
a 342 305
a 342 376
a 342 225
a 376 305
a 376 342
a 105 103
a 105 104
a 105 82
a 105 377
a 105 378
a 105 233
a 105 232
a 263 265
a 263 261
a 263 264
a 263 266
a 265 263
a 265 264
a 265 261
a 265 266
a 265 295
a 265 271
a 264 263
a 264 265
a 264 261
a 264 266
a 266 263
a 266 264
a 266 265
a 266 261
a 161 211
a 161 288
a 161 100
a 161 213
a 161 214
a 161 86
a 161 158
a 161 379
a 161 134
a 161 163
a 161 162
a 161 380
a 161 381
a 161 382
a 161 383
a 161 384
a 161 385
a 161 386
a 161 238
a 161 387
a 161 243
a 288 211
a 288 161
a 136 62
a 281 197
a 281 279
a 281 388
a 281 328
a 281 283
a 281 389
a 283 197
a 283 279
a 283 328
a 283 281
a 283 202
a 283 388
a 186 188
a 186 175
a 186 190
a 186 121
a 186 187
a 186 191
a 186 390
a 186 275
a 186 391
a 191 186
a 191 187
a 191 121
a 191 295
a 191 296
a 191 392
a 191 188
a 212 100
a 233 104
a 233 231
a 233 268
a 233 338
a 233 232
a 233 269
a 233 219
a 233 99
a 233 378
a 233 105
a 330 132
a 330 393
a 330 394
a 330 328
a 330 395
a 330 389
a 330 396
a 330 397
a 236 398
a 236 380
a 236 396
a 236 331
a 236 397
a 236 383
a 236 399
a 236 385
a 236 400
a 236 401
a 236 219
a 236 359
a 236 356
a 236 189
a 236 357
a 236 402
a 398 236
a 398 396
a 398 380
a 380 236
a 380 398
a 380 396
a 380 331
a 380 385
a 380 383
a 380 161
a 380 162
a 380 401
a 380 163
a 380 403
a 396 236
a 396 398
a 396 393
a 396 330
a 396 380
a 396 394
a 396 395
a 365 392
a 365 319
a 392 365
a 392 295
a 392 191
a 392 404
a 392 405
a 392 406
a 392 407
a 234 99
a 234 219
a 234 235
a 234 240
a 234 339
a 234 408
a 234 409
a 234 410
a 231 269
a 231 219
a 231 233
a 231 232
a 231 99
a 231 268
a 269 231
a 269 268
a 269 338
a 269 232
a 269 233
a 269 99
a 232 231
a 232 268
a 232 269
a 232 219
a 232 233
a 232 99
a 232 104
a 232 378
a 232 105
a 232 338
a 232 213
a 232 411
a 232 412
a 232 310
a 232 413
a 232 188
a 232 308
a 232 309
a 268 231
a 268 269
a 268 233
a 268 338
a 268 232
a 268 99
a 268 414
a 268 415
a 268 416
a 338 268
a 338 269
a 338 233
a 338 414
a 338 415
a 338 104
a 338 416
a 338 232
a 338 417
a 338 353
a 338 418
a 338 419
a 300 282
a 295 392
a 295 191
a 295 274
a 295 279
a 295 271
a 295 292
a 295 265
a 393 330
a 393 394
a 393 395
a 393 396
a 394 393
a 394 330
a 394 396
a 394 395
a 395 393
a 395 330
a 395 396
a 395 394
a 328 330
a 328 388
a 328 202
a 328 281
a 328 283
a 328 389
a 389 330
a 389 388
a 389 328
a 389 281
a 389 420
a 388 281
a 388 328
a 388 389
a 388 283
a 364 217
a 364 421
a 294 279
a 192 121
a 192 422
a 192 194
a 192 197
a 193 121
a 193 107
a 193 189
a 193 219
a 193 319
a 193 276
a 193 106
a 193 201
a 193 423
a 194 121
a 194 192
a 194 197
a 194 271
a 194 196
a 195 121
a 195 196
a 196 121
a 196 195
a 196 194
a 196 271
a 106 316
a 106 107
a 106 82
a 106 108
a 106 218
a 106 109
a 106 319
a 106 298
a 106 424
a 106 318
a 106 201
a 106 273
a 106 274
a 106 275
a 106 425
a 106 426
a 106 193
a 106 427
a 106 428
a 228 151
a 228 187
a 229 151
a 414 416
a 414 338
a 414 415
a 414 268
a 416 414
a 416 415
a 416 268
a 416 338
a 416 429
a 415 414
a 415 338
a 415 268
a 415 416
a 258 260
a 258 226
a 258 259
a 260 258
a 260 259
a 260 226
a 260 162
a 260 430
a 260 431
a 260 164
a 260 432
a 260 246
a 260 433
a 260 434
a 260 363
a 260 435
a 260 436
a 260 437
a 259 258
a 259 260
a 259 226
a 331 333
a 331 385
a 331 380
a 331 438
a 331 399
a 331 236
a 331 383
a 331 134
a 333 331
a 333 134
a 333 438
a 385 331
a 385 236
a 385 383
a 385 399
a 385 380
a 385 161
a 438 331
a 438 159
a 438 333
a 399 331
a 399 236
a 399 385
a 399 383
a 399 410
a 383 331
a 383 236
a 383 385
a 383 380
a 383 399
a 383 410
a 383 161
a 383 381
a 383 403
a 383 439
a 383 440
a 383 441
a 332 134
a 285 203
a 285 286
a 285 442
a 286 203
a 286 285
a 422 192
a 301 303
a 301 304
a 301 107
a 301 443
a 304 301
a 304 302
a 304 107
a 302 107
a 302 304
a 390 186
a 213 100
a 213 379
a 213 161
a 213 158
a 213 214
a 213 232
a 213 104
a 213 134
a 214 100
a 214 161
a 214 213
a 214 403
a 379 213
a 379 158
a 379 161
a 158 379
a 158 159
a 158 213
a 158 86
a 158 161
a 158 134
a 397 236
a 397 330
a 442 285
a 442 444
a 442 275
a 442 445
a 442 308
a 442 446
a 442 447
a 442 448
a 442 449
a 224 225
a 224 138
a 377 105
a 378 233
a 378 105
a 378 232
a 157 86
a 157 160
a 157 159
a 160 157
a 160 86
a 160 159
a 159 157
a 159 158
a 159 438
a 159 86
a 159 160
a 404 392
a 410 383
a 410 399
a 410 240
a 410 234
a 410 408
a 271 194
a 271 295
a 271 196
a 271 265
a 271 201
a 421 364
a 429 416
a 351 189
a 351 217
a 420 389
a 230 151
a 230 425
a 230 450
a 230 320
a 230 451
a 230 443
a 230 452
a 230 428
a 230 109
a 230 453
a 230 454
a 230 455
a 230 456
a 230 457
a 230 458
a 230 459
a 230 460
a 230 461
a 230 462
a 297 188
a 297 279
a 297 298
a 298 297
a 298 188
a 298 279
a 298 106
a 298 352
a 298 318
a 298 319
a 298 189
a 272 201
a 343 316
a 343 463
a 343 425
a 425 230
a 425 320
a 425 463
a 425 464
a 425 452
a 425 465
a 425 343
a 425 106
a 425 426
a 425 466
a 425 467
a 425 356
a 425 468
a 425 469
a 425 470
a 425 326
a 425 471
a 425 460
a 450 230
a 450 472
a 450 473
a 450 407
a 350 218
a 443 474
a 443 301
a 443 475
a 443 230
a 443 451
a 474 443
a 444 442
a 163 476
a 163 162
a 163 161
a 163 86
a 163 164
a 163 380
a 163 477
a 163 384
a 163 478
a 476 163
a 162 163
a 162 161
a 162 380
a 162 477
a 162 86
a 162 164
a 162 260
a 162 479
a 411 232
a 344 316
a 366 319
a 339 104
a 339 340
a 339 240
a 339 234
a 339 408
a 339 409
a 339 480
a 339 419
a 339 481
a 339 482
a 424 106
a 424 483
a 318 106
a 318 484
a 318 298
a 318 472
a 318 320
a 318 319
a 318 109
a 318 276
a 273 106
a 273 485
a 273 201
a 273 486
a 273 487
a 273 488
a 412 232
a 412 489
a 412 490
a 412 491
a 412 492
a 412 307
a 412 493
a 412 494
a 412 495
a 412 311
a 412 496
a 412 497
a 412 498
a 412 499
a 412 419
a 412 500
a 412 431
a 412 501
a 412 502
a 412 503
a 412 504
a 412 505
a 412 363
a 412 506
a 412 507
a 412 508
a 372 274
a 372 275
a 275 274
a 275 186
a 275 391
a 275 372
a 275 106
a 275 201
a 275 442
a 485 509
a 485 273
a 485 486
a 485 487
a 485 428
a 509 485
a 509 428
a 486 485
a 486 273
a 486 487
a 486 510
a 486 356
a 486 511
a 486 426
a 486 512
a 487 485
a 487 486
a 487 273
a 487 510
a 487 426
a 428 485
a 428 509
a 428 106
a 428 230
a 381 161
a 381 383
a 381 413
a 382 161
a 463 513
a 463 514
a 463 425
a 463 343
a 463 466
a 463 464
a 513 463
a 513 514
a 513 431
a 513 480
a 514 463
a 514 513
a 514 417
a 514 515
a 405 392
a 310 516
a 310 232
a 310 188
a 310 517
a 310 518
a 516 310
a 516 519
a 516 520
a 516 521
a 516 522
a 516 523
a 516 524
a 516 360
a 525 526
a 526 525
a 526 354
a 526 527
a 526 335
a 526 464
a 526 451
a 526 528
a 526 334
a 526 529
a 530 490
a 490 530
a 490 412
a 490 489
a 490 309
a 490 491
a 352 189
a 352 298
a 477 162
a 477 164
a 477 163
a 477 243
a 164 162
a 164 86
a 164 477
a 164 163
a 164 311
a 164 260
a 164 432
a 164 431
a 419 407
a 419 531
a 419 353
a 419 338
a 419 480
a 419 532
a 419 482
a 419 339
a 419 533
a 419 534
a 419 535
a 419 357
a 419 536
a 419 537
a 419 538
a 419 496
a 419 412
a 419 499
a 419 402
a 419 539
a 419 359
a 419 540
a 419 500
a 419 375
a 419 541
a 419 542
a 419 543
a 419 498
a 419 544
a 419 545
a 419 546
a 407 419
a 407 472
a 407 317
a 407 406
a 407 450
a 407 276
a 407 392
a 391 275
a 391 186
a 391 547
a 391 327
a 391 518
a 391 548
a 391 549
a 391 550
a 391 431
a 489 413
a 489 491
a 489 412
a 489 490
a 489 494
a 489 307
a 489 551
a 489 495
a 413 489
a 413 381
a 413 232
a 413 308
a 491 489
a 491 412
a 491 490
a 340 104
a 340 339
a 341 104
a 400 236
a 400 552
a 400 435
a 400 553
a 400 387
a 401 236
a 401 554
a 401 380
a 484 318
a 554 401
a 554 307
a 320 230
a 320 425
a 320 318
a 320 466
a 320 452
a 320 109
a 320 356
a 320 426
a 403 214
a 403 383
a 403 380
a 403 439
a 403 540
a 403 440
a 403 555
a 403 441
a 475 443
a 475 240
a 475 242
a 475 556
a 557 308
a 308 557
a 308 232
a 308 188
a 308 309
a 308 413
a 308 445
a 308 442
a 431 513
a 431 430
a 431 260
a 431 558
a 431 311
a 431 432
a 431 164
a 431 552
a 431 497
a 431 435
a 431 391
a 431 246
a 431 433
a 431 559
a 431 412
a 431 506
a 431 501
a 431 560
a 431 504
a 431 561
a 431 505
a 431 502
a 431 363
a 480 513
a 480 481
a 480 419
a 480 482
a 480 339
a 480 335
a 480 336
a 367 319
a 235 234
a 235 219
a 235 134
a 235 238
a 235 562
a 235 240
a 235 563
a 235 496
a 235 498
a 235 241
a 235 245
a 235 500
a 235 242
a 235 244
a 235 243
a 417 338
a 417 514
a 417 515
a 515 417
a 515 514
a 353 189
a 353 338
a 353 419
a 353 531
a 353 418
a 309 232
a 309 307
a 309 308
a 309 188
a 309 564
a 309 490
a 307 188
a 307 309
a 307 554
a 307 565
a 307 540
a 307 412
a 307 494
a 307 489
a 307 493
a 354 189
a 354 526
a 354 527
a 527 354
a 527 526
a 527 533
a 527 451
a 527 454
a 473 566
a 473 450
a 473 567
a 566 473
a 519 520
a 519 516
a 520 519
a 520 521
a 520 445
a 520 516
a 520 522
a 520 518
a 521 520
a 521 445
a 521 516
a 521 523
a 521 522
a 521 568
a 521 518
a 445 521
a 445 308
a 445 520
a 445 442
a 569 387
a 387 569
a 387 386
a 387 161
a 387 238
a 387 243
a 387 528
a 387 441
a 387 240
a 387 563
a 387 435
a 387 400
a 387 570
a 472 318
a 472 450
a 472 407
a 334 335
a 334 336
a 334 102
a 334 571
a 334 526
a 335 334
a 335 464
a 335 526
a 335 336
a 335 102
a 335 572
a 335 571
a 335 573
a 335 480
a 335 537
a 335 456
a 336 334
a 336 335
a 336 102
a 336 480
a 336 240
a 336 574
a 336 535
a 336 534
a 336 575
a 336 576
a 336 577
a 336 578
a 384 161
a 384 163
a 384 478
a 384 552
a 384 579
a 384 580
a 317 276
a 317 451
a 317 109
a 317 407
a 276 317
a 276 193
a 276 407
a 276 201
a 276 318
a 276 359
a 451 317
a 451 230
a 451 443
a 451 526
a 451 527
a 451 581
a 451 582
a 451 464
a 451 583
a 240 408
a 240 339
a 240 234
a 240 410
a 240 409
a 240 239
a 240 219
a 240 235
a 240 563
a 240 387
a 240 556
a 240 475
a 240 574
a 240 534
a 240 336
a 408 240
a 408 339
a 408 234
a 408 409
a 408 410
a 409 240
a 409 339
a 409 234
a 409 408
a 580 478
a 580 552
a 580 579
a 580 384
a 478 580
a 478 384
a 478 163
a 478 552
a 478 579
a 478 243
a 478 508
a 478 584
a 531 419
a 531 353
a 564 309
a 237 104
a 237 219
a 237 238
a 238 104
a 238 237
a 238 219
a 238 386
a 238 161
a 238 387
a 238 235
a 238 243
a 238 239
a 439 383
a 439 403
a 439 565
a 439 492
a 439 540
a 464 335
a 464 425
a 464 526
a 464 452
a 464 463
a 464 583
a 464 451
a 452 464
a 452 425
a 452 320
a 452 466
a 452 582
a 452 230
a 452 585
a 406 392
a 406 407
a 465 425
a 567 473
a 533 527
a 533 572
a 533 586
a 533 532
a 533 419
a 533 535
a 533 537
a 533 357
a 533 456
a 523 521
a 523 516
a 587 588
a 588 587
a 588 360
a 426 106
a 426 425
a 426 589
a 426 510
a 426 487
a 426 320
a 426 486
a 426 511
a 427 106
a 373 274
a 446 442
a 446 498
a 446 590
a 466 463
a 466 320
a 466 452
a 466 425
a 466 571
a 386 161
a 386 238
a 386 387
a 386 243
a 243 386
a 243 161
a 243 387
a 243 238
a 243 477
a 243 563
a 243 478
a 243 241
a 243 219
a 243 245
a 243 570
a 243 235
a 243 244
a 430 555
a 430 260
a 430 431
a 555 430
a 555 540
a 555 403
a 522 520
a 522 516
a 522 521
a 517 310
a 517 518
a 518 310
a 518 517
a 518 521
a 518 520
a 518 327
a 518 551
a 518 591
a 518 547
a 518 579
a 518 449
a 518 592
a 518 593
a 518 548
a 518 550
a 518 391
a 518 549
a 518 542
a 572 586
a 572 533
a 572 335
a 572 573
a 572 537
a 572 456
a 586 572
a 586 533
a 565 307
a 565 524
a 565 540
a 565 439
a 524 565
a 524 516
a 524 360
a 540 565
a 540 307
a 540 555
a 540 403
a 540 439
a 540 441
a 540 563
a 540 435
a 540 419
a 540 359
a 540 402
a 540 357
a 540 504
a 540 362
a 492 439
a 492 412
a 423 193
a 423 594
a 423 356
a 423 595
a 418 338
a 418 353
a 440 383
a 440 403
a 488 273
a 359 276
a 359 236
a 359 596
a 359 402
a 359 358
a 359 189
a 359 361
a 359 435
a 359 419
a 359 540
a 359 363
a 359 357
a 359 504
a 359 597
a 337 102
a 337 598
a 311 188
a 311 312
a 311 431
a 311 164
a 311 599
a 311 412
a 311 497
a 311 246
a 311 559
a 311 600
a 311 433
a 311 601
a 311 504
a 311 560
a 311 507
a 311 508
a 312 311
a 312 188
a 602 603
a 602 604
a 602 568
a 602 605
a 602 512
a 602 589
a 602 606
a 603 602
a 603 568
a 603 589
a 603 607
a 603 608
a 603 609
a 603 610
a 603 611
a 603 612
a 603 613
a 603 614
a 603 615
a 603 616
a 360 588
a 360 524
a 360 516
a 360 494
a 360 274
a 360 358
a 360 189
a 441 383
a 441 528
a 441 403
a 441 540
a 441 387
a 441 496
a 441 433
a 483 424
a 374 274
a 571 334
a 571 335
a 571 466
a 604 602
a 447 448
a 447 442
a 447 449
a 448 447
a 448 442
a 239 240
a 239 238
a 239 219
a 479 162
a 598 337
a 562 235
a 596 359
a 594 423
a 368 319
a 368 355
a 355 368
a 355 189
a 558 431
a 582 452
a 582 581
a 582 585
a 582 583
a 582 451
a 585 452
a 585 582
a 599 311
a 568 602
a 568 521
a 568 589
a 568 603
a 568 617
a 568 618
a 568 542
a 605 602
a 605 589
a 605 512
a 605 606
a 605 619
a 605 327
a 605 470
a 605 620
a 512 602
a 512 589
a 512 605
a 512 617
a 512 356
a 512 486
a 512 511
a 512 510
a 512 621
a 512 622
a 512 623
a 512 624
a 512 470
a 512 625
a 512 626
a 512 627
a 512 628
a 512 629
a 512 630
a 512 631
a 512 632
a 512 633
a 512 634
a 512 635
a 512 636
a 512 637
a 512 638
a 512 639
a 512 640
a 512 641
a 589 602
a 589 426
a 589 568
a 589 605
a 589 512
a 589 510
a 589 603
a 606 602
a 606 605
a 528 441
a 528 387
a 528 526
a 528 529
a 528 642
a 528 482
a 528 643
a 481 480
a 481 482
a 481 339
a 482 480
a 482 419
a 482 481
a 482 339
a 482 642
a 482 528
a 482 575
a 482 574
a 482 643
a 482 644
a 482 645
a 482 646
a 482 647
a 482 648
a 482 649
a 510 589
a 510 426
a 510 487
a 510 486
a 510 512
a 510 511
a 581 582
a 581 451
a 493 412
a 493 494
a 493 307
a 494 412
a 494 489
a 494 493
a 494 360
a 494 307
a 617 512
a 617 568
a 617 356
a 356 512
a 356 617
a 356 189
a 356 357
a 356 236
a 356 320
a 356 425
a 356 595
a 356 423
a 356 375
a 356 486
a 356 650
a 356 621
a 375 274
a 375 532
a 375 356
a 375 402
a 375 357
a 375 419
a 375 651
a 375 652
a 375 653
a 375 654
a 327 591
a 327 547
a 327 518
a 327 391
a 327 593
a 327 619
a 327 605
a 327 655
a 327 656
a 327 608
a 327 657
a 327 620
a 327 470
a 327 610
a 327 658
a 327 659
a 327 660
a 327 661
a 327 662
a 327 324
a 327 326
a 327 471
a 327 109
a 591 327
a 591 547
a 591 518
a 547 327
a 547 591
a 547 518
a 547 391
a 547 449
a 449 447
a 449 442
a 449 579
a 449 518
a 449 592
a 449 590
a 449 547
a 357 356
a 357 189
a 357 236
a 357 532
a 357 419
a 357 537
a 357 536
a 357 533
a 357 534
a 357 456
a 357 538
a 357 540
a 357 359
a 357 402
a 357 362
a 357 375
a 563 243
a 563 540
a 563 240
a 563 663
a 563 235
a 563 387
a 563 535
a 432 260
a 432 431
a 432 164
a 551 518
a 551 489
a 551 592
a 551 495
a 573 335
a 573 572
a 573 664
a 573 665
a 573 666
a 573 667
a 573 668
a 532 419
a 532 533
a 532 534
a 532 402
a 532 357
a 532 536
a 532 537
a 532 538
a 532 375
a 402 359
a 402 532
a 402 236
a 402 375
a 402 419
a 402 540
a 402 357
a 402 362
a 496 358
a 496 441
a 496 235
a 496 412
a 496 498
a 496 499
a 496 539
a 496 419
a 496 500
a 358 496
a 358 274
a 358 189
a 358 359
a 358 360
a 529 528
a 529 526
a 529 669
a 529 537
a 495 412
a 495 551
a 495 489
a 495 433
a 433 441
a 433 495
a 433 435
a 433 260
a 433 246
a 433 431
a 433 670
a 433 671
a 433 672
a 433 673
a 433 560
a 433 601
a 433 434
a 433 363
a 433 311
a 433 674
a 433 436
a 433 504
a 433 675
a 433 676
a 433 677
a 433 252
a 433 678
a 433 679
a 433 680
a 433 561
a 433 681
a 552 579
a 552 580
a 552 478
a 552 384
a 552 431
a 552 400
a 552 246
a 552 508
a 552 435
a 579 552
a 579 478
a 579 518
a 579 592
a 579 580
a 579 384
a 579 590
a 579 449
a 592 579
a 592 551
a 592 518
a 592 449
a 590 579
a 590 449
a 590 446
a 590 498
a 467 425
a 534 532
a 534 419
a 534 536
a 534 357
a 534 538
a 534 240
a 534 682
a 534 336
a 534 666
a 534 683
a 534 684
a 534 576
a 534 685
a 534 658
a 534 252
a 534 244
a 534 659
a 534 686
a 536 532
a 536 419
a 536 538
a 536 534
a 536 357
a 536 682
a 537 532
a 537 419
a 537 572
a 537 335
a 537 533
a 537 357
a 537 456
a 537 529
a 537 666
a 537 669
a 537 687
a 537 688
a 537 689
a 537 690
a 537 684
a 537 691
a 537 692
a 537 693
a 537 694
a 537 695
a 537 696
a 537 697
a 537 667
a 537 698
a 537 699
a 537 700
a 537 363
a 537 701
a 538 532
a 538 419
a 538 536
a 538 357
a 538 534
a 535 419
a 535 563
a 535 663
a 535 533
a 535 646
a 535 645
a 535 644
a 535 336
a 595 356
a 595 423
a 456 572
a 456 335
a 456 537
a 456 357
a 456 533
a 456 702
a 456 469
a 456 455
a 456 703
a 456 458
a 456 230
a 456 704
a 456 705
a 456 687
a 456 462
a 456 706
a 456 707
a 456 708
a 456 709
a 593 518
a 593 327
a 663 563
a 663 535
a 583 582
a 583 464
a 583 451
a 511 486
a 511 426
a 511 512
a 511 510
a 618 568
a 618 542
a 542 618
a 542 568
a 542 518
a 542 609
a 542 498
a 542 419
a 642 528
a 642 482
a 642 643
a 643 642
a 643 528
a 643 482
a 643 690
a 643 710
a 643 711
a 607 609
a 607 603
a 607 612
a 607 610
a 607 611
a 607 608
a 609 607
a 609 542
a 609 603
a 612 607
a 612 608
a 612 610
a 612 611
a 612 603
a 610 607
a 610 655
a 610 608
a 610 612
a 610 327
a 610 603
a 610 611
a 610 712
a 610 713
a 610 714
a 610 619
a 610 613
a 610 715
a 610 541
a 610 716
a 610 545
a 610 615
a 610 504
a 610 717
a 610 616
a 610 718
a 610 719
a 610 720
a 610 721
a 611 607
a 611 608
a 611 610
a 611 612
a 611 603
a 608 607
a 608 655
a 608 612
a 608 327
a 608 603
a 608 610
a 608 611
a 608 619
a 608 661
a 608 714
a 608 613
a 608 722
a 608 723
a 608 614
a 608 724
a 608 725
a 608 254
a 608 616
a 608 615
a 608 632
a 498 496
a 498 412
a 498 446
a 498 235
a 498 500
a 498 590
a 498 544
a 498 726
a 498 542
a 498 543
a 498 541
a 498 419
a 498 727
a 498 728
a 498 545
a 498 729
a 499 496
a 499 412
a 499 539
a 499 419
a 499 500
a 499 730
a 499 541
a 499 502
a 499 505
a 499 597
a 499 546
a 499 731
a 539 496
a 539 499
a 539 419
a 539 500
a 500 496
a 500 412
a 500 498
a 500 499
a 500 419
a 500 235
a 500 539
a 361 189
a 361 363
a 361 359
a 361 362
a 361 732
a 363 361
a 363 359
a 363 189
a 363 362
a 363 412
a 363 506
a 363 501
a 363 433
a 363 260
a 363 434
a 363 505
a 363 431
a 363 502
a 363 674
a 363 504
a 363 675
a 363 676
a 363 733
a 363 677
a 363 545
a 363 734
a 363 735
a 363 736
a 363 678
a 363 737
a 363 738
a 363 739
a 363 740
a 363 741
a 363 537
a 362 361
a 362 540
a 362 357
a 362 402
a 362 189
a 362 363
a 497 412
a 497 559
a 497 431
a 497 311
a 246 552
a 246 435
a 246 260
a 246 433
a 246 311
a 246 431
a 246 189
a 246 219
a 508 552
a 508 478
a 508 584
a 508 412
a 508 507
a 508 311
a 508 742
a 508 743
a 508 729
a 435 552
a 435 433
a 435 400
a 435 359
a 435 540
a 435 431
a 435 504
a 435 387
a 435 246
a 435 434
a 435 561
a 435 744
a 435 260
a 435 437
a 435 436
a 435 745
a 435 677
a 559 497
a 559 311
a 559 431
a 504 435
a 504 540
a 504 359
a 504 570
a 504 412
a 504 506
a 504 503
a 504 600
a 504 501
a 504 311
a 504 560
a 504 431
a 504 502
a 504 505
a 504 674
a 504 675
a 504 363
a 504 676
a 504 433
a 504 733
a 504 746
a 504 541
a 504 545
a 504 610
a 504 747
a 504 748
a 504 681
a 504 749
a 504 750
a 504 729
a 504 751
a 504 752
a 504 753
a 504 754
a 504 544
a 504 755
a 650 356
a 650 756
a 756 650
a 756 757
a 756 322
a 619 605
a 619 327
a 619 470
a 619 620
a 619 758
a 619 608
a 619 759
a 619 661
a 619 610
a 619 715
a 470 619
a 470 605
a 470 468
a 470 620
a 470 425
a 470 327
a 470 661
a 470 658
a 470 660
a 470 760
a 470 662
a 470 622
a 470 623
a 470 761
a 470 624
a 470 762
a 470 763
a 470 625
a 470 512
a 470 626
a 470 627
a 470 659
a 620 619
a 620 605
a 620 655
a 620 656
a 620 327
a 620 470
a 575 764
a 575 648
a 575 647
a 575 649
a 575 482
a 575 574
a 575 577
a 575 765
a 575 645
a 575 766
a 575 578
a 575 576
a 575 336
a 764 575
a 648 575
a 648 574
a 648 482
a 648 649
a 648 647
a 647 575
a 647 574
a 647 482
a 647 648
a 647 649
a 649 575
a 649 574
a 649 482
a 649 648
a 649 647
a 574 575
a 574 240
a 574 648
a 574 647
a 574 649
a 574 482
a 574 336
a 574 577
a 574 765
a 574 767
a 574 768
a 574 769
a 574 584
a 574 770
a 574 771
a 574 691
a 574 744
a 574 772
a 574 773
a 574 774
a 574 775
a 574 776
a 574 777
a 556 240
a 556 475
a 664 573
a 454 527
a 454 453
a 454 230
a 621 356
a 621 512
a 702 456
a 469 456
a 469 425
a 469 778
a 469 455
a 553 400
a 548 518
a 548 391
a 548 550
a 548 549
a 548 661
a 550 518
a 550 391
a 550 549
a 550 548
a 550 779
a 549 518
a 549 391
a 549 550
a 549 548
a 549 661
a 757 756
a 757 453
a 757 322
a 757 457
a 322 756
a 322 321
a 322 109
a 322 757
a 322 323
a 646 535
a 646 482
a 646 645
a 646 644
a 645 535
a 645 482
a 645 646
a 645 644
a 645 575
a 645 780
a 645 766
a 645 711
a 645 578
a 645 781
a 645 782
a 644 535
a 644 482
a 644 645
a 644 646
a 655 610
a 655 656
a 655 327
a 655 620
a 655 608
a 656 655
a 656 657
a 656 658
a 656 327
a 656 659
a 656 620
a 657 656
a 657 658
a 657 659
a 657 327
a 658 656
a 658 657
a 658 659
a 658 327
a 658 783
a 658 470
a 658 323
a 658 784
a 658 662
a 658 576
a 658 534
a 658 763
a 658 252
a 658 686
a 658 785
a 658 625
a 658 626
a 658 786
a 658 787
a 658 788
a 658 789
a 658 636
a 658 637
a 658 790
a 658 641
a 658 689
a 658 791
a 658 792
a 658 793
a 658 794
a 658 795
a 658 796
a 658 615
a 659 656
a 659 657
a 659 658
a 659 327
a 659 576
a 659 761
a 659 252
a 659 534
a 659 686
a 659 470
a 659 632
a 669 529
a 669 537
a 669 325
a 669 797
a 669 689
a 241 219
a 241 245
a 241 235
a 241 244
a 241 243
a 245 241
a 245 219
a 245 235
a 245 244
a 245 243
a 245 683
a 244 241
a 244 219
a 244 245
a 244 235
a 244 243
a 244 798
a 244 699
a 244 705
a 244 799
a 244 685
a 244 683
a 244 684
a 244 534
a 244 800
a 244 801
a 244 686
a 244 802
a 244 701
a 244 803
a 244 804
a 244 805
a 242 219
a 242 235
a 242 475
a 666 537
a 666 687
a 666 806
a 666 807
a 666 683
a 666 684
a 666 534
a 666 808
a 666 809
a 666 665
a 666 573
a 666 810
a 666 668
a 666 811
a 666 812
a 666 813
a 666 814
a 666 695
a 666 696
a 666 697
a 666 667
a 666 698
a 666 815
a 666 816
a 666 817
a 666 818
a 666 819
a 666 820
a 666 821
a 666 822
a 687 666
a 687 537
a 687 456
a 687 823
a 687 808
a 687 817
a 688 537
a 468 425
a 468 470
a 453 321
a 453 230
a 453 757
a 453 454
a 453 457
a 321 453
a 321 109
a 321 323
a 321 322
a 457 453
a 457 757
a 457 325
a 457 230
a 457 797
a 457 458
a 457 824
a 457 630
a 570 387
a 570 243
a 570 504
a 682 536
a 682 534
a 323 321
a 323 322
a 323 109
a 323 783
a 323 658
a 323 784
a 732 361
a 732 825
a 501 412
a 501 506
a 501 503
a 501 431
a 501 363
a 501 502
a 501 504
a 501 505
a 502 412
a 502 506
a 502 503
a 502 501
a 502 504
a 502 505
a 502 431
a 502 363
a 502 499
a 502 731
a 502 541
a 502 507
a 502 597
a 503 412
a 503 506
a 503 502
a 503 501
a 503 504
a 505 412
a 505 506
a 505 501
a 505 504
a 505 431
a 505 502
a 505 363
a 505 499
a 505 731
a 505 597
a 506 412
a 506 431
a 506 501
a 506 502
a 506 503
a 506 504
a 506 363
a 506 505
a 506 746
a 826 671
a 826 601
a 826 672
a 826 670
a 826 673
a 826 584
a 671 826
a 671 670
a 671 673
a 671 433
a 671 672
a 671 601
a 671 584
a 601 826
a 601 670
a 601 671
a 601 672
a 601 433
a 601 560
a 601 311
a 672 826
a 672 670
a 672 671
a 672 673
a 672 433
a 672 601
a 670 826
a 670 673
a 670 433
a 670 672
a 670 601
a 670 671
a 778 469
a 778 455
a 455 778
a 455 230
a 455 456
a 455 458
a 455 469
a 798 827
a 798 828
a 798 244
a 798 759
a 798 829
a 798 705
a 827 798
a 827 759
a 827 828
a 827 829
a 827 712
a 827 830
a 827 705
a 827 703
a 828 798
a 828 759
a 828 827
a 828 830
a 828 829
a 828 705
a 759 798
a 759 619
a 759 827
a 759 828
a 759 712
a 759 758
a 759 830
a 759 829
a 759 705
a 829 798
a 829 759
a 829 828
a 829 827
a 829 830
a 829 705
a 705 798
a 705 456
a 705 759
a 705 703
a 705 828
a 705 829
a 705 827
a 705 244
a 584 508
a 584 478
a 584 826
a 584 574
a 584 671
a 584 773
a 584 673
a 544 498
a 544 543
a 544 541
a 544 419
a 544 727
a 544 728
a 544 545
a 544 729
a 544 831
a 544 832
a 544 833
a 544 751
a 544 834
a 544 835
a 544 504
a 726 498
a 730 499
a 541 499
a 541 419
a 541 543
a 541 498
a 541 544
a 541 546
a 541 502
a 541 545
a 541 507
a 541 836
a 541 610
a 541 504
a 541 747
a 541 749
a 541 736
a 541 750
a 541 716
a 541 754
a 541 752
a 541 729
a 541 746
a 806 807
a 806 808
a 806 809
a 806 666
a 807 806
a 807 808
a 807 666
a 807 809
a 807 813
a 807 812
a 807 811
a 807 837
a 808 806
a 808 807
a 808 666
a 808 809
a 808 665
a 808 810
a 808 823
a 808 687
a 808 817
a 809 806
a 809 807
a 809 666
a 809 808
a 434 435
a 434 433
a 434 260
a 434 363
a 561 435
a 561 431
a 561 674
a 561 838
a 561 681
a 561 839
a 561 840
a 561 727
a 561 748
a 561 729
a 561 834
a 561 841
a 561 679
a 561 433
a 561 751
a 561 842
a 561 843
a 561 844
a 561 775
a 561 845
a 561 846
a 561 740
a 561 847
a 561 848
a 561 849
a 561 850
a 561 851
a 758 619
a 758 759
a 758 660
a 758 852
a 758 713
a 758 661
a 758 714
a 758 853
a 661 619
a 661 608
a 661 470
a 661 549
a 661 660
a 661 852
a 661 548
a 661 327
a 661 713
a 661 758
a 577 575
a 577 576
a 577 574
a 577 336
a 577 765
a 577 578
a 577 854
a 765 575
a 765 574
a 765 577
a 765 690
a 766 575
a 766 645
a 766 578
a 578 575
a 578 576
a 578 336
a 578 766
a 578 577
a 578 645
a 578 854
a 576 575
a 576 855
a 576 577
a 576 578
a 576 336
a 576 658
a 576 659
a 576 534
a 576 252
a 576 686
a 855 576
a 783 658
a 783 323
a 783 784
a 784 783
a 784 658
a 784 323
a 458 455
a 458 456
a 458 325
a 458 230
a 458 704
a 458 797
a 458 457
a 673 670
a 673 671
a 673 672
a 673 433
a 673 826
a 673 584
a 703 456
a 703 705
a 703 706
a 703 827
a 704 456
a 704 458
a 690 643
a 690 537
a 690 693
a 690 765
a 690 856
a 690 857
a 699 244
a 699 802
a 699 803
a 699 701
a 699 537
a 699 858
a 859 852
a 859 860
a 852 859
a 852 660
a 852 713
a 852 758
a 852 661
a 852 860
a 860 859
a 860 852
a 712 759
a 712 827
a 712 610
a 712 713
a 712 614
a 712 861
a 830 759
a 830 828
a 830 829
a 830 827
a 862 825
a 825 862
a 825 732
a 325 797
a 325 669
a 325 689
a 325 458
a 325 457
a 325 109
a 325 863
a 325 864
a 325 865
a 325 866
a 325 867
a 797 325
a 797 689
a 797 669
a 797 458
a 797 457
a 689 325
a 689 868
a 689 537
a 689 797
a 689 669
a 689 869
a 689 870
a 689 460
a 689 858
a 689 792
a 689 871
a 689 762
a 689 872
a 689 324
a 689 865
a 689 707
a 689 658
a 689 873
a 689 866
a 780 645
a 780 711
a 711 780
a 711 643
a 711 645
a 711 710
a 326 471
a 326 425
a 326 460
a 326 324
a 326 327
a 326 109
a 471 326
a 471 425
a 471 460
a 471 662
a 471 327
a 460 326
a 460 471
a 460 425
a 460 230
a 460 874
a 460 689
a 710 643
a 710 711
a 600 311
a 600 504
a 868 689
a 868 869
a 869 868
a 869 689
a 869 875
a 462 871
a 462 876
a 462 877
a 462 878
a 462 456
a 462 230
a 462 461
a 462 706
a 462 653
a 462 850
a 462 675
a 462 879
a 462 719
a 462 880
a 462 881
a 462 882
a 462 883
a 462 884
a 462 885
a 462 886
a 871 462
a 871 876
a 871 878
a 871 877
a 871 887
a 871 888
a 871 247
a 871 676
a 871 689
a 871 889
a 871 890
a 871 891
a 871 461
a 871 892
a 871 801
a 876 462
a 876 877
a 876 871
a 876 878
a 877 462
a 877 876
a 877 878
a 877 871
a 877 887
a 877 888
a 877 889
a 877 890
a 877 461
a 877 251
a 878 462
a 878 876
a 878 877
a 878 871
a 683 666
a 683 245
a 683 684
a 683 534
a 683 685
a 683 244
a 683 686
a 684 666
a 684 683
a 684 534
a 684 893
a 684 799
a 684 802
a 684 537
a 684 692
a 684 244
a 684 800
a 684 801
a 684 691
a 560 433
a 560 601
a 560 311
a 560 431
a 560 504
a 247 219
a 247 248
a 247 871
a 248 247
a 248 219
a 744 772
a 744 838
a 744 435
a 744 574
a 744 691
a 744 894
a 744 770
a 744 848
a 744 895
a 772 744
a 772 838
a 772 574
a 772 691
a 838 744
a 838 772
a 838 561
a 838 727
a 838 729
a 838 840
a 660 470
a 660 852
a 660 713
a 660 758
a 660 327
a 660 661
a 713 610
a 713 660
a 713 852
a 713 712
a 713 758
a 713 661
a 893 684
a 779 550
a 779 896
a 779 897
a 779 898
a 887 888
a 887 899
a 887 877
a 887 871
a 887 900
a 888 887
a 888 877
a 888 871
a 899 887
a 899 900
a 900 887
a 900 899
a 706 703
a 706 456
a 706 891
a 706 875
a 706 901
a 706 462
a 706 892
a 902 903
a 902 667
a 902 904
a 902 695
a 903 902
a 903 904
a 903 695
a 903 667
a 903 901
a 667 902
a 667 904
a 667 665
a 667 573
a 667 695
a 667 903
a 667 697
a 667 666
a 667 537
a 667 905
a 667 668
a 667 906
a 904 902
a 904 903
a 904 667
a 904 695
a 904 907
a 904 906
a 904 865
a 904 857
a 904 908
a 695 902
a 695 904
a 695 903
a 695 667
a 695 666
a 695 537
a 695 697
a 695 668
a 695 906
a 799 684
a 799 802
a 799 800
a 799 244
a 799 801
a 799 909
a 802 799
a 802 684
a 802 699
a 802 244
a 802 803
a 802 800
a 802 910
a 802 805
a 802 890
a 800 799
a 800 244
a 800 684
a 800 801
a 800 909
a 800 803
a 800 802
a 800 805
a 800 911
a 801 799
a 801 244
a 801 800
a 801 684
a 801 889
a 801 871
a 249 219
a 543 498
a 543 545
a 543 544
a 543 541
a 543 419
a 545 543
a 545 498
a 545 544
a 545 419
a 545 541
a 545 836
a 545 546
a 545 610
a 545 750
a 545 504
a 545 734
a 545 736
a 545 363
a 545 754
a 545 716
a 545 752
a 545 720
a 714 912
a 714 722
a 714 613
a 714 758
a 714 610
a 714 723
a 714 853
a 714 754
a 714 608
a 912 714
a 912 754
a 722 714
a 722 608
a 722 723
a 613 714
a 613 614
a 613 608
a 613 603
a 613 610
a 723 714
a 723 608
a 723 722
a 723 724
a 723 725
a 723 892
a 723 651
a 723 913
a 723 615
a 853 714
a 853 758
a 754 714
a 754 836
a 754 715
a 754 912
a 754 914
a 754 915
a 754 718
a 754 916
a 754 597
a 754 541
a 754 917
a 754 918
a 754 545
a 754 919
a 754 716
a 754 920
a 754 921
a 754 922
a 754 923
a 754 924
a 754 925
a 754 926
a 754 927
a 754 753
a 754 504
a 754 755
a 754 928
a 754 752
a 665 666
a 665 667
a 665 573
a 665 808
a 665 810
a 810 665
a 810 808
a 810 666
a 746 506
a 746 677
a 746 929
a 746 504
a 746 930
a 746 840
a 746 675
a 746 931
a 746 541
a 746 629
a 746 932
a 746 933
a 746 748
a 746 934
a 727 498
a 727 544
a 727 728
a 727 561
a 727 838
a 727 840
a 727 729
a 727 748
a 727 930
a 728 498
a 728 544
a 728 727
a 728 729
a 729 498
a 729 544
a 729 728
a 729 561
a 729 727
a 729 838
a 729 840
a 729 742
a 729 748
a 729 743
a 729 508
a 729 930
a 729 839
a 729 504
a 729 681
a 729 741
a 729 541
a 729 751
a 729 736
a 729 752
a 597 499
a 597 731
a 597 359
a 597 505
a 597 502
a 597 754
a 597 935
a 597 936
a 597 718
a 546 499
a 546 419
a 546 541
a 546 836
a 546 545
a 546 937
a 546 938
a 546 724
a 546 762
a 731 499
a 731 505
a 731 597
a 731 502
a 437 435
a 437 436
a 437 260
a 436 435
a 436 674
a 436 433
a 436 676
a 436 260
a 436 437
a 436 675
a 824 788
a 824 939
a 824 866
a 824 940
a 824 628
a 824 941
a 824 942
a 824 457
a 824 630
a 824 867
a 824 907
a 788 824
a 788 939
a 788 940
a 788 628
a 788 658
a 788 943
a 788 795
a 788 944
a 788 867
a 939 824
a 939 788
a 939 943
a 939 624
a 939 941
a 939 866
a 939 942
a 939 628
a 939 867
a 939 945
a 939 946
a 760 624
a 760 470
a 760 762
a 624 760
a 624 622
a 624 623
a 624 943
a 624 941
a 624 470
a 624 762
a 624 625
a 624 512
a 624 626
a 624 627
a 624 939
a 762 760
a 762 624
a 762 470
a 762 689
a 762 793
a 762 790
a 762 724
a 762 937
a 762 938
a 762 546
a 715 619
a 715 836
a 715 610
a 715 754
a 715 914
a 947 948
a 947 949
a 948 947
a 948 949
a 948 701
a 948 950
a 948 951
a 949 947
a 949 948
a 668 573
a 668 666
a 668 695
a 668 906
a 668 667
a 952 898
a 952 953
a 952 896
a 952 718
a 898 952
a 898 896
a 898 897
a 898 779
a 898 953
a 898 718
a 898 954
a 898 955
a 898 956
a 898 957
a 953 952
a 953 896
a 953 898
a 953 718
a 896 952
a 896 897
a 896 953
a 896 898
a 896 779
a 896 718
a 718 952
a 718 896
a 718 898
a 718 953
a 718 716
a 718 615
a 718 610
a 718 754
a 718 916
a 718 616
a 718 717
a 718 719
a 718 935
a 718 957
a 718 936
a 718 597
a 718 955
a 897 896
a 897 779
a 897 898
a 897 954
a 693 690
a 693 537
a 662 471
a 662 658
a 662 327
a 662 470
a 662 763
a 662 761
a 763 662
a 763 658
a 763 761
a 763 470
a 761 662
a 761 763
a 761 470
a 761 659
a 761 958
a 761 940
a 761 959
a 761 630
a 761 625
a 761 791
a 761 793
a 761 790
a 761 632
a 761 629
a 324 327
a 324 326
a 324 109
a 324 689
a 622 623
a 622 625
a 622 512
a 622 626
a 622 624
a 622 470
a 622 627
a 623 622
a 623 470
a 623 625
a 623 512
a 623 626
a 623 624
a 623 627
a 625 622
a 625 623
a 625 624
a 625 470
a 625 512
a 625 627
a 625 626
a 625 658
a 625 761
a 625 787
a 625 786
a 626 622
a 626 623
a 626 624
a 626 470
a 626 512
a 626 627
a 626 625
a 626 785
a 626 658
a 626 796
a 626 636
a 626 793
a 627 622
a 627 623
a 627 624
a 627 470
a 627 512
a 627 625
a 627 626
a 507 412
a 507 541
a 507 502
a 507 311
a 507 508
a 677 930
a 677 840
a 677 746
a 677 745
a 677 435
a 677 433
a 677 363
a 677 680
a 677 960
a 677 961
a 677 962
a 677 963
a 677 964
a 677 678
a 677 965
a 930 677
a 930 929
a 930 840
a 930 746
a 930 748
a 930 727
a 930 729
a 840 677
a 840 674
a 840 561
a 840 748
a 840 839
a 840 727
a 840 729
a 840 838
a 840 930
a 840 681
a 840 746
a 252 576
a 252 658
a 252 686
a 252 659
a 252 534
a 252 251
a 252 433
a 252 219
a 252 253
a 686 576
a 686 685
a 686 658
a 686 252
a 686 244
a 686 683
a 686 534
a 686 659
a 767 574
a 767 768
a 767 769
a 767 770
a 767 771
a 768 574
a 768 770
a 768 769
a 768 767
a 768 771
a 768 775
a 768 774
a 768 777
a 768 894
a 768 933
a 768 966
a 768 748
a 768 857
a 769 574
a 769 768
a 769 770
a 769 771
a 769 767
a 769 774
a 769 775
a 770 574
a 770 768
a 770 769
a 770 771
a 770 767
a 770 774
a 770 775
a 770 777
a 770 744
a 771 574
a 771 768
a 771 769
a 771 770
a 771 767
a 691 574
a 691 537
a 691 692
a 691 744
a 691 772
a 691 684
a 691 255
a 691 967
a 691 848
a 691 933
a 691 895
a 773 574
a 773 584
a 459 230
a 813 807
a 813 666
a 813 811
a 813 812
a 812 807
a 812 666
a 812 811
a 812 813
a 811 807
a 811 666
a 811 812
a 811 813
a 674 433
a 674 363
a 674 676
a 674 561
a 674 436
a 674 504
a 674 840
a 674 675
a 674 733
a 676 674
a 676 436
a 676 504
a 676 433
a 676 675
a 676 363
a 676 871
a 675 674
a 675 436
a 675 504
a 675 433
a 675 363
a 675 676
a 675 733
a 675 678
a 675 681
a 675 931
a 675 746
a 675 968
a 675 251
a 675 462
a 733 674
a 733 504
a 733 675
a 733 363
a 681 561
a 681 748
a 681 839
a 681 840
a 681 678
a 681 841
a 681 675
a 681 504
a 681 433
a 681 729
a 681 835
a 681 845
a 681 894
a 681 740
a 839 561
a 839 748
a 839 681
a 839 840
a 839 678
a 839 729
a 839 741
a 839 845
a 839 894
a 748 561
a 748 839
a 748 681
a 748 840
a 748 930
a 748 727
a 748 729
a 748 504
a 748 845
a 748 894
a 748 740
a 748 849
a 748 746
a 748 629
a 748 768
a 748 857
a 836 541
a 836 914
a 836 715
a 836 754
a 836 545
a 836 546
a 836 915
a 943 624
a 943 941
a 943 939
a 943 795
a 943 969
a 943 788
a 943 944
a 943 867
a 941 943
a 941 624
a 941 939
a 941 824
a 614 613
a 614 608
a 614 712
a 614 603
a 875 869
a 875 706
a 875 901
a 875 892
a 875 858
a 875 970
a 685 683
a 685 686
a 685 244
a 685 534
a 692 537
a 692 691
a 692 684
a 914 836
a 914 715
a 914 754
a 874 460
a 823 808
a 823 687
a 823 817
a 817 823
a 817 687
a 817 808
a 817 971
a 817 814
a 817 696
a 817 815
a 817 666
a 817 972
a 929 930
a 929 746
a 854 577
a 854 578
a 781 645
a 781 782
a 782 645
a 782 781
a 870 689
a 870 707
a 971 696
a 971 814
a 971 817
a 696 971
a 696 814
a 696 820
a 696 817
a 696 537
a 696 698
a 696 666
a 696 972
a 696 973
a 814 971
a 814 666
a 814 696
a 814 817
a 814 972
a 814 820
a 814 974
a 814 819
a 814 975
a 814 976
a 745 435
a 745 677
a 724 913
a 724 254
a 724 723
a 724 616
a 724 725
a 724 608
a 724 615
a 724 546
a 724 938
a 724 762
a 724 937
a 724 651
a 913 724
a 913 725
a 913 615
a 913 616
a 913 651
a 913 723
a 913 937
a 254 724
a 254 725
a 254 250
a 254 608
a 254 615
a 254 616
a 254 219
a 616 724
a 616 725
a 616 716
a 616 608
a 616 615
a 616 610
a 616 717
a 616 254
a 616 718
a 616 913
a 616 720
a 616 719
a 616 977
a 616 603
a 616 978
a 725 724
a 725 254
a 725 723
a 725 616
a 725 608
a 725 615
a 725 913
a 615 724
a 615 725
a 615 716
a 615 608
a 615 610
a 615 254
a 615 717
a 615 616
a 615 718
a 615 913
a 615 720
a 615 719
a 615 603
a 615 978
a 615 658
a 615 723
a 678 839
a 678 681
a 678 675
a 678 433
a 678 738
a 678 737
a 678 363
a 678 739
a 678 979
a 678 740
a 678 251
a 678 965
a 678 677
a 980 981
a 980 910
a 980 803
a 981 980
a 981 982
a 866 940
a 866 824
a 866 983
a 866 939
a 866 689
a 866 907
a 866 867
a 866 325
a 940 866
a 940 824
a 940 788
a 940 628
a 940 983
a 940 761
a 940 630
a 983 866
a 983 940
a 820 696
a 820 984
a 820 666
a 820 814
a 820 974
a 820 819
a 820 872
a 774 770
a 774 574
a 774 769
a 774 768
a 774 775
a 774 776
a 775 770
a 775 574
a 775 769
a 775 768
a 775 774
a 775 776
a 775 561
a 628 824
a 628 788
a 628 940
a 628 512
a 628 630
a 628 867
a 628 939
a 628 946
a 628 945
a 856 967
a 856 857
a 856 690
a 967 856
a 967 255
a 967 691
a 967 849
a 967 985
a 653 861
a 653 375
a 653 462
a 861 653
a 861 712
a 861 986
a 701 948
a 701 950
a 701 951
a 701 699
a 701 244
a 701 987
a 701 849
a 701 988
a 701 989
a 701 990
a 701 537
a 950 701
a 950 948
a 950 951
a 951 701
a 951 950
a 951 948
a 951 975
a 803 699
a 803 244
a 803 991
a 803 800
a 803 802
a 803 805
a 803 980
a 803 910
a 909 799
a 909 800
a 837 816
a 837 992
a 837 807
a 837 993
a 837 818
a 837 821
a 816 837
a 816 992
a 816 666
a 992 837
a 992 816
a 858 689
a 858 872
a 858 792
a 858 873
a 858 901
a 858 699
a 858 970
a 858 875
a 858 892
a 858 911
a 872 858
a 872 792
a 872 689
a 872 820
a 872 942
a 792 858
a 792 689
a 792 872
a 792 873
a 792 658
a 994 716
a 994 719
a 994 721
a 716 994
a 716 610
a 716 717
a 716 719
a 716 616
a 716 615
a 716 718
a 716 541
a 716 754
a 716 545
a 716 721
a 719 994
a 719 716
a 719 718
a 719 615
a 719 616
a 719 610
a 719 720
a 719 721
a 719 462
a 719 880
a 719 995
a 719 881
a 719 996
a 719 884
a 719 883
a 719 997
a 719 998
a 719 999
a 719 1000
a 719 1001
a 250 219
a 250 254
a 863 325
a 863 864
a 864 325
a 864 863
a 776 574
a 776 1002
a 776 774
a 776 775
a 717 716
a 717 615
a 717 610
a 717 616
a 717 718
a 750 545
a 750 734
a 750 541
a 750 504
a 734 545
a 734 750
a 734 736
a 734 363
a 251 252
a 251 219
a 251 253
a 251 678
a 251 979
a 251 675
a 251 877
a 251 461
a 251 1003
a 251 890
a 251 256
a 251 1004
a 251 1005
a 251 805
a 253 251
a 253 252
a 253 219
a 954 897
a 954 898
a 742 508
a 742 729
a 742 743
a 743 742
a 743 729
a 743 508
a 630 628
a 630 940
a 630 761
a 630 512
a 630 824
a 630 457
a 958 959
a 958 761
a 959 958
a 959 761
a 901 903
a 901 892
a 901 891
a 901 970
a 901 706
a 901 858
a 901 875
a 785 658
a 785 626
a 937 938
a 937 546
a 937 724
a 937 762
a 937 651
a 937 1006
a 937 1007
a 937 913
a 938 937
a 938 546
a 938 724
a 938 762
a 629 632
a 629 631
a 629 512
a 629 633
a 629 761
a 629 1008
a 629 933
a 629 746
a 629 932
a 629 748
a 629 934
a 632 629
a 632 631
a 632 512
a 632 633
a 632 608
a 632 761
a 632 659
a 632 1008
a 632 1009
a 631 629
a 631 632
a 631 512
a 631 633
a 633 629
a 633 631
a 633 512
a 633 632
a 891 970
a 891 706
a 891 871
a 891 901
a 891 892
a 970 891
a 970 892
a 970 901
a 970 858
a 970 875
a 694 537
a 694 697
a 694 707
a 694 907
a 915 836
a 915 925
a 915 754
a 915 916
a 915 1010
a 786 658
a 786 787
a 786 625
a 787 658
a 787 786
a 787 625
a 892 723
a 892 901
a 892 891
a 892 871
a 892 970
a 892 706
a 892 875
a 892 858
a 925 915
a 925 916
a 925 1010
a 925 754
a 925 927
a 925 921
a 925 923
a 925 928
a 925 918
a 916 915
a 916 754
a 916 1010
a 916 925
a 916 718
a 1010 915
a 1010 916
a 1010 925
a 707 870
a 707 689
a 707 456
a 707 709
a 707 697
a 707 694
a 707 1011
a 707 1012
a 707 1013
a 1002 776
a 255 967
a 255 691
a 255 219
a 834 561
a 834 1014
a 834 544
a 834 679
a 834 833
a 834 847
a 777 770
a 777 574
a 777 768
a 651 654
a 651 375
a 651 723
a 651 913
a 651 639
a 651 724
a 651 937
a 651 1015
a 654 651
a 654 375
a 654 986
a 654 932
a 697 695
a 697 666
a 697 667
a 697 537
a 697 707
a 697 694
a 907 904
a 907 866
a 907 824
a 907 694
a 796 626
a 796 637
a 796 789
a 796 658
a 634 637
a 634 512
a 634 636
a 637 634
a 637 636
a 637 512
a 637 789
a 637 658
a 637 790
a 637 796
a 636 634
a 636 512
a 636 637
a 636 789
a 636 658
a 636 790
a 636 638
a 636 626
a 636 793
a 747 749
a 747 736
a 747 541
a 747 504
a 749 747
a 749 541
a 749 504
a 749 736
a 736 747
a 736 545
a 736 541
a 736 734
a 736 749
a 736 363
a 736 729
a 698 696
a 698 1016
a 698 974
a 698 666
a 698 537
a 698 1017
a 942 824
a 942 939
a 942 1018
a 942 872
a 942 1019
a 942 911
a 857 856
a 857 690
a 857 910
a 857 933
a 857 1020
a 857 768
a 857 904
a 857 748
a 831 544
a 831 833
a 832 544
a 832 833
a 833 544
a 833 831
a 833 751
a 833 835
a 833 834
a 833 832
a 841 681
a 841 561
a 635 512
a 652 375
a 680 677
a 680 433
a 960 677
a 960 964
a 960 965
a 960 1021
a 1016 698
a 1016 974
a 974 1016
a 974 698
a 974 814
a 974 820
a 865 325
a 865 689
a 865 911
a 865 904
a 865 906
a 889 871
a 889 877
a 889 890
a 889 801
a 889 709
a 890 871
a 890 889
a 890 877
a 890 802
a 890 910
a 890 256
a 890 251
a 890 1003
a 791 761
a 791 793
a 791 790
a 791 658
a 793 791
a 793 761
a 793 762
a 793 790
a 793 638
a 793 1022
a 793 1023
a 793 636
a 793 658
a 793 626
a 790 791
a 790 793
a 790 761
a 790 762
a 790 789
a 790 636
a 790 658
a 790 637
a 790 638
a 790 1024
a 790 1025
a 790 1023
a 461 230
a 461 462
a 461 871
a 461 877
a 461 251
a 461 910
a 461 879
a 461 1026
a 461 1027
a 795 943
a 795 969
a 795 788
a 795 944
a 795 794
a 795 658
a 969 943
a 969 795
a 679 433
a 679 561
a 679 843
a 679 844
a 679 846
a 679 834
a 894 768
a 894 744
a 894 933
a 894 1028
a 894 748
a 894 839
a 894 848
a 894 895
a 894 681
a 894 845
a 933 768
a 933 691
a 933 894
a 933 1028
a 933 848
a 933 629
a 933 932
a 933 746
a 933 857
a 933 934
a 741 839
a 741 729
a 741 363
a 720 615
a 720 616
a 720 721
a 720 610
a 720 719
a 720 545
a 905 667
a 984 820
a 709 707
a 709 456
a 709 982
a 709 889
a 1029 1030
a 1029 849
a 1030 1029
a 1030 849
a 849 1029
a 849 1030
a 849 987
a 849 701
a 849 988
a 849 967
a 849 985
a 849 748
a 849 561
a 849 990
a 848 691
a 848 744
a 848 894
a 848 1028
a 848 933
a 848 561
a 926 1031
a 926 1032
a 926 754
a 926 924
a 926 922
a 1031 926
a 1031 1032
a 1032 926
a 1032 1031
a 955 956
a 955 898
a 955 957
a 955 718
a 956 955
a 956 898
a 956 879
a 956 851
a 956 957
a 956 1033
a 735 363
a 962 910
a 962 677
a 962 1034
a 962 965
a 962 1035
a 910 962
a 910 1036
a 910 1037
a 910 1038
a 910 857
a 910 804
a 910 802
a 910 980
a 910 803
a 910 461
a 910 890
a 1014 834
a 708 456
a 752 541
a 752 504
a 752 729
a 752 754
a 752 545
a 638 640
a 638 1023
a 638 641
a 638 639
a 638 512
a 638 1022
a 638 793
a 638 790
a 638 1025
a 638 1024
a 638 636
a 640 638
a 640 639
a 640 641
a 640 512
a 1023 638
a 1023 1022
a 1023 793
a 1023 1024
a 1023 1025
a 1023 790
a 641 638
a 641 789
a 641 639
a 641 658
a 641 640
a 641 512
a 641 1015
a 639 638
a 639 641
a 639 640
a 639 512
a 639 1015
a 639 651
a 639 1039
a 1022 638
a 1022 1023
a 1022 793
a 738 678
a 738 737
a 738 740
a 738 363
a 738 739
a 737 678
a 737 740
a 737 363
a 737 739
a 737 738
a 737 979
a 737 965
a 739 678
a 739 737
a 739 738
a 739 363
a 739 740
a 979 678
a 979 251
a 979 737
a 979 965
a 740 678
a 740 737
a 740 738
a 740 739
a 740 681
a 740 363
a 740 835
a 740 748
a 740 561
a 751 842
a 751 835
a 751 845
a 751 561
a 751 833
a 751 544
a 751 504
a 751 729
a 751 850
a 751 851
a 842 751
a 842 846
a 842 845
a 842 561
a 842 1040
a 842 1041
a 835 751
a 835 833
a 835 544
a 835 681
a 835 740
a 845 751
a 845 842
a 845 748
a 845 839
a 845 561
a 845 681
a 845 894
a 789 658
a 789 790
a 789 641
a 789 636
a 789 637
a 789 918
a 789 796
a 972 814
a 972 696
a 972 973
a 972 815
a 972 817
a 973 696
a 973 815
a 973 972
a 987 701
a 987 849
a 987 988
a 988 987
a 988 701
a 988 849
a 988 989
a 988 990
a 993 818
a 993 837
a 993 821
a 818 993
a 818 837
a 818 666
a 821 993
a 821 837
a 821 819
a 821 666
a 917 754
a 917 920
a 917 918
a 918 754
a 918 920
a 918 917
a 918 919
a 918 1042
a 918 928
a 918 925
a 918 1043
a 918 789
a 919 754
a 919 918
a 919 920
a 919 1042
a 920 754
a 920 917
a 920 918
a 920 919
a 920 1042
a 920 1044
a 921 754
a 921 927
a 921 925
a 921 923
a 922 754
a 922 926
a 922 924
a 923 754
a 923 927
a 923 921
a 923 925
a 924 754
a 924 926
a 924 922
a 924 995
a 927 754
a 927 925
a 927 923
a 927 921
a 846 842
a 846 1040
a 846 679
a 846 561
a 846 934
a 1040 846
a 1040 842
a 944 788
a 944 943
a 944 795
a 935 597
a 935 936
a 935 718
a 936 935
a 936 597
a 936 718
a 873 858
a 873 792
a 873 689
a 961 677
a 961 964
a 961 1036
a 961 1037
a 961 1038
a 963 677
a 964 677
a 964 961
a 964 960
a 964 965
a 843 679
a 843 844
a 843 561
a 844 843
a 844 679
a 844 561
a 991 803
a 1028 895
a 1028 894
a 1028 848
a 1028 933
a 895 1028
a 895 744
a 895 691
a 895 894
a 815 973
a 815 666
a 815 972
a 815 817
a 957 955
a 957 718
a 957 898
a 957 879
a 957 1033
a 957 956
a 957 851
a 986 861
a 986 654
a 986 932
a 932 986
a 932 654
a 932 629
a 932 933
a 932 746
a 804 805
a 804 244
a 804 1045
a 804 1046
a 804 1047
a 804 1048
a 804 910
a 805 804
a 805 244
a 805 803
a 805 800
a 805 802
a 805 911
a 805 1027
a 805 256
a 805 251
a 700 537
a 879 956
a 879 851
a 879 957
a 879 461
a 879 1026
a 879 1043
a 879 462
a 879 1042
a 256 219
a 256 257
a 256 1026
a 256 1003
a 256 890
a 256 251
a 256 1004
a 256 1005
a 256 805
a 256 1049
a 256 1019
a 256 1050
a 256 1051
a 256 1052
a 257 256
a 257 219
a 1011 707
a 1011 1012
a 1011 1013
a 1012 707
a 1012 1011
a 1012 1013
a 1013 707
a 1013 1011
a 1013 1012
a 1017 698
a 721 720
a 721 994
a 721 716
a 721 610
a 721 719
a 931 675
a 931 746
a 977 616
a 1025 638
a 1025 1024
a 1025 1023
a 1025 790
a 1024 638
a 1024 1023
a 1024 790
a 1024 1025
a 965 678
a 965 1034
a 965 677
a 965 962
a 965 960
a 965 964
a 965 979
a 965 737
a 753 755
a 753 504
a 753 754
a 755 753
a 755 754
a 755 504
a 966 768
a 1034 962
a 1034 965
a 968 675
a 1015 639
a 1015 641
a 1015 651
a 1015 1039
a 982 709
a 982 981
a 867 824
a 867 628
a 867 939
a 867 866
a 867 325
a 867 945
a 867 943
a 867 788
a 867 946
a 989 701
a 989 988
a 851 956
a 851 879
a 851 957
a 851 751
a 851 561
a 906 695
a 906 668
a 906 904
a 906 865
a 906 667
a 1036 910
a 1036 1038
a 1036 1037
a 1036 961
a 1038 1036
a 1038 1037
a 1038 961
a 1038 910
a 1037 1036
a 1037 910
a 1037 1038
a 1037 961
a 1041 842
a 1042 920
a 1042 918
a 1042 919
a 1042 1043
a 1042 879
a 1042 1044
a 1008 1053
a 1008 1054
a 1008 632
a 1008 629
a 1053 1008
a 1053 1054
a 1054 1008
a 1054 1053
a 911 865
a 911 858
a 911 800
a 911 1018
a 911 805
a 911 1019
a 911 942
a 911 1055
a 911 1056
a 911 1057
a 911 1058
a 911 1059
a 911 1060
a 819 666
a 819 821
a 819 820
a 819 814
a 819 976
a 1045 804
a 1045 1048
a 1045 1046
a 1045 1047
a 1046 804
a 1046 1048
a 1046 1045
a 1046 1047
a 1047 804
a 1047 1048
a 1047 1046
a 1047 1045
a 1048 804
a 1048 1045
a 1048 1046
a 1048 1047
a 1061 850
a 850 1061
a 850 462
a 850 751
a 850 561
a 985 849
a 985 967
a 847 561
a 847 834
a 1035 1062
a 1035 962
a 1062 1035
a 990 701
a 990 988
a 990 849
a 794 658
a 794 795
a 1006 937
a 1006 1007
a 1007 1006
a 1007 937
a 1039 639
a 1039 1015
a 928 925
a 928 918
a 928 754
a 822 1063
a 822 666
a 1063 822
a 1044 920
a 1044 1042
a 1043 918
a 1043 1042
a 1043 879
a 975 951
a 975 814
a 975 976
a 975 1064
a 1021 960
a 1033 957
a 1033 956
a 934 746
a 934 933
a 934 846
a 934 629
a 946 628
a 946 867
a 946 945
a 946 939
a 945 628
a 945 867
a 945 939
a 945 946
a 1065 976
a 976 1065
a 976 819
a 976 814
a 976 975
a 978 615
a 978 616
a 1009 632
a 1020 857
a 1026 256
a 1026 879
a 1026 461
a 1018 911
a 1018 942
a 995 924
a 995 880
a 995 996
a 995 719
a 908 904
a 880 996
a 880 995
a 880 462
a 880 719
a 996 880
a 996 995
a 996 719
a 1003 256
a 1003 251
a 1003 890
a 1064 975
a 1027 805
a 1027 461
a 881 1066
a 881 462
a 881 882
a 881 719
a 881 884
a 881 883
a 881 997
a 1066 881
a 1066 882
a 1066 883
a 882 881
a 882 462
a 882 1066
a 884 1067
a 884 883
a 884 1068
a 884 719
a 884 881
a 884 1069
a 884 997
a 884 462
a 884 885
a 884 886
a 884 1070
a 1067 884
a 1067 1068
a 1067 1005
a 1067 998
a 883 884
a 883 1066
a 883 462
a 883 719
a 883 881
a 883 1051
a 1068 884
a 1068 1067
a 1004 256
a 1004 251
a 1004 1005
a 1005 256
a 1005 251
a 1005 1004
a 1005 1071
a 1005 1067
a 1070 997
a 1070 1072
a 1070 884
a 1070 1073
a 1070 1050
a 1070 1074
a 1070 885
a 997 1070
a 997 1075
a 997 884
a 997 1069
a 997 719
a 997 881
a 997 1001
a 997 1076
a 1019 911
a 1019 942
a 1019 1072
a 1019 1077
a 1019 1078
a 1019 256
a 1019 1050
a 1019 1051
a 1071 1005
a 1071 1049
a 1071 1079
a 1075 997
a 1075 1080
a 1075 1081
a 1069 884
a 1069 997
a 885 884
a 885 886
a 885 462
a 885 1070
a 886 884
a 886 885
a 886 462
a 1049 256
a 1049 1082
a 1049 1071
a 1082 1049
a 1082 1079
a 1082 1083
a 1079 1082
a 1079 1071
a 1079 1083
a 1083 1082
a 1083 1079
a 1083 1084
a 1084 1083
a 1080 1075
a 1072 1019
a 1072 1074
a 1072 1073
a 1072 1070
a 1074 1072
a 1074 1085
a 1074 1070
a 1074 1073
a 1074 1050
a 1074 1076
a 1073 1072
a 1073 1070
a 1073 1074
a 998 999
a 998 1067
a 998 1001
a 998 719
a 998 1000
a 999 998
a 999 719
a 999 1001
a 999 1000
a 1001 998
a 1001 997
a 1001 719
a 1001 999
a 1001 1000
a 1001 1086
a 1000 998
a 1000 719
a 1000 1001
a 1000 999
a 1085 1074
a 1085 1076
a 1076 1085
a 1076 997
a 1076 1074
a 1076 1087
a 1050 1070
a 1050 1074
a 1050 256
a 1050 1019
a 1077 1019
a 1088 1086
a 1088 1089
a 1086 1088
a 1086 1089
a 1086 1001
a 1089 1088
a 1089 1086
a 1055 911
a 1051 883
a 1051 256
a 1051 1019
a 1090 1091
a 1091 1090
a 1091 1052
a 1081 1075
a 1081 1092
a 1078 1019
a 1093 1056
a 1056 1093
a 1056 911
a 1056 1094
a 1056 1095
a 1056 1096
a 1056 1097
a 1056 1098
a 1056 1099
a 1056 1100
a 1056 1101
a 1056 1102
a 1056 1103
a 1056 1104
a 1056 1105
a 1052 256
a 1052 1091
a 1057 911
a 1092 1081
a 1106 1107
a 1106 1108
a 1106 1109
a 1107 1106
a 1107 1109
a 1058 1059
a 1058 1060
a 1058 911
a 1059 1058
a 1059 911
a 1059 1060
a 1060 1058
a 1060 911
a 1060 1059
a 1060 1110
a 1060 1109
a 1060 1111
a 1060 1095
a 1087 1076
a 1108 1106
a 1109 1107
a 1109 1106
a 1109 1110
a 1109 1112
a 1109 1060
a 1113 1114
a 1113 1115
a 1114 1113
a 1110 1109
a 1110 1060
a 1110 1116
a 1116 1110
a 1117 1118
a 1117 1119
a 1117 1120
a 1118 1117
a 1118 1121
a 1118 1122
a 1123 1124
a 1123 1122
a 1123 1125
a 1123 1126
a 1123 1127
a 1123 1128
a 1123 1129
a 1123 1130
a 1123 1131
a 1123 1132
a 1123 1133
a 1124 1123
a 1124 1122
a 1122 1123
a 1122 1124
a 1122 1134
a 1122 1118
a 1112 1109
a 1115 1113
a 1115 1135
a 1115 1136
a 1115 1137
a 1115 1094
a 1115 1138
a 1115 1139
a 1115 1140
a 1115 1141
a 1115 1142
a 1115 1143
a 1115 1144
a 1115 1145
a 1115 1146
a 1115 1147
a 1148 1149
a 1148 1150
a 1148 1151
a 1148 1152
a 1148 1153
a 1148 1154
a 1148 1155
a 1149 1148
a 1149 1151
a 1149 1153
a 1149 1150
a 1149 1152
a 1149 1154
a 1149 1155
a 1150 1148
a 1150 1151
a 1150 1153
a 1150 1149
a 1150 1154
a 1150 1152
a 1150 1155
a 1150 1125
a 1150 1156
a 1150 1157
a 1150 1158
a 1150 1159
a 1150 1160
a 1150 1161
a 1150 1162
a 1151 1148
a 1151 1149
a 1151 1150
a 1151 1152
a 1151 1153
a 1151 1154
a 1151 1155
a 1151 1163
a 1151 1164
a 1151 1165
a 1151 1135
a 1151 1157
a 1151 1120
a 1151 1166
a 1151 1167
a 1151 1168
a 1151 1169
a 1151 1161
a 1151 1170
a 1151 1171
a 1151 1172
a 1151 1173
a 1151 1174
a 1151 1175
a 1151 1176
a 1152 1148
a 1152 1151
a 1152 1121
a 1152 1153
a 1152 1149
a 1152 1154
a 1152 1150
a 1152 1155
a 1153 1148
a 1153 1151
a 1153 1149
a 1153 1150
a 1153 1152
a 1153 1154
a 1153 1155
a 1154 1148
a 1154 1151
a 1154 1153
a 1154 1149
a 1154 1150
a 1154 1152
a 1154 1155
a 1155 1148
a 1155 1151
a 1155 1153
a 1155 1149
a 1155 1154
a 1155 1150
a 1155 1152
a 1155 1135
a 1155 1120
a 1155 1177
a 1155 1178
a 1155 1179
a 1155 1180
a 1155 1181
a 1155 1182
a 1155 1167
a 1155 1183
a 1155 1184
a 1155 1185
a 1155 1186
a 1155 1187
a 1155 1188
a 1155 1160
a 1155 1189
a 1155 1161
a 1155 1159
a 1155 1162
a 1155 1190
a 1155 1158
a 1155 1191
a 1155 1192
a 1155 1173
a 1155 1193
a 1155 1170
a 1155 1105
a 1155 1133
a 1155 1194
a 1135 1195
a 1135 1166
a 1135 1115
a 1135 1196
a 1135 1155
a 1135 1151
a 1135 1120
a 1135 1138
a 1135 1197
a 1135 1198
a 1135 1199
a 1135 1133
a 1135 1200
a 1195 1135
a 1195 1166
a 1195 1196
a 1166 1135
a 1166 1195
a 1166 1201
a 1166 1196
a 1166 1181
a 1166 1192
a 1166 1151
a 1166 1202
a 1166 1178
a 1166 1203
a 1166 1204
a 1166 1182
a 1166 1168
a 1166 1169
a 1196 1135
a 1196 1195
a 1196 1166
a 1205 1206
a 1205 1127
a 1205 1207
a 1205 1134
a 1205 1208
a 1205 1209
a 1205 1210
a 1206 1205
a 1206 1127
a 1127 1205
a 1127 1206
a 1127 1211
a 1127 1126
a 1127 1123
a 1127 1128
a 1127 1212
a 1127 1213
a 1125 1123
a 1125 1179
a 1125 1150
a 1201 1166
a 1201 1179
a 1201 1214
a 1201 1215
a 1201 1192
a 1201 1216
a 1121 1152
a 1121 1118
a 1121 1120
a 1121 1139
a 1121 1217
a 1121 1146
a 1121 1218
a 1121 1219
a 1121 1220
a 1121 1138
a 1121 1221
a 1121 1222
a 1121 1223
a 1121 1145
a 1121 1224
a 1121 1225
a 1121 1226
a 1121 1227
a 1121 1141
a 1121 1228
a 1121 1229
a 1121 1230
a 1120 1121
a 1120 1117
a 1120 1151
a 1120 1155
a 1120 1138
a 1120 1135
a 1231 1232
a 1232 1231
a 1232 1233
a 1232 1234
a 1232 1235
a 1232 1236
a 1232 1237
a 1232 1111
a 1232 1238
a 1094 1097
a 1094 1056
a 1094 1136
a 1094 1137
a 1094 1115
a 1097 1094
a 1097 1056
a 1097 1103
a 1097 1105
a 1239 1095
a 1095 1239
a 1095 1056
a 1095 1240
a 1095 1098
a 1095 1241
a 1095 1237
a 1095 1215
a 1095 1242
a 1095 1111
a 1095 1060
a 1095 1193
a 1095 1186
a 1095 1105
a 1095 1243
a 1095 1169
a 1095 1192
a 1096 1244
a 1096 1056
a 1096 1098
a 1096 1245
a 1096 1101
a 1244 1096
a 1244 1181
a 1244 1246
a 1244 1219
a 1240 1098
a 1240 1095
a 1240 1241
a 1098 1240
a 1098 1180
a 1098 1056
a 1098 1241
a 1098 1095
a 1098 1247
a 1098 1101
a 1098 1096
a 1241 1240
a 1241 1098
a 1241 1095
a 1136 1137
a 1136 1115
a 1136 1094
a 1137 1136
a 1137 1115
a 1137 1094
a 1180 1098
a 1180 1247
a 1180 1101
a 1180 1155
a 1180 1181
a 1247 1098
a 1247 1099
a 1247 1180
a 1247 1101
a 1247 1181
a 1247 1246
a 1247 1192
a 1101 1098
a 1101 1180
a 1101 1247
a 1101 1056
a 1101 1096
a 1119 1117
a 1139 1248
a 1139 1141
a 1139 1121
a 1139 1115
a 1139 1140
a 1139 1143
a 1139 1249
a 1248 1139
a 1248 1141
a 1248 1159
a 1141 1139
a 1141 1248
a 1141 1140
a 1141 1115
a 1141 1250
a 1141 1143
a 1141 1198
a 1141 1251
a 1141 1227
a 1141 1121
a 1141 1199
a 1141 1228
a 1141 1252
a 1141 1229
a 1141 1200
a 1099 1102
a 1099 1181
a 1099 1056
a 1099 1246
a 1099 1253
a 1099 1254
a 1099 1247
a 1099 1192
a 1102 1099
a 1102 1056
a 1181 1099
a 1181 1166
a 1181 1246
a 1181 1219
a 1181 1247
a 1181 1244
a 1181 1192
a 1181 1180
a 1181 1253
a 1181 1155
a 1181 1255
a 1181 1104
a 1181 1225
a 1246 1099
a 1246 1181
a 1246 1219
a 1246 1247
a 1246 1244
a 1246 1192
a 1246 1216
a 1253 1099
a 1253 1225
a 1253 1219
a 1253 1254
a 1253 1181
a 1254 1099
a 1254 1256
a 1254 1253
a 1254 1225
a 1254 1257
a 1254 1104
a 1254 1219
a 1192 1099
a 1192 1166
a 1192 1258
a 1192 1179
a 1192 1181
a 1192 1246
a 1192 1247
a 1192 1201
a 1192 1214
a 1192 1177
a 1192 1237
a 1192 1259
a 1192 1183
a 1192 1260
a 1192 1261
a 1192 1185
a 1192 1105
a 1192 1095
a 1192 1204
a 1192 1169
a 1192 1155
a 1100 1056
a 1100 1262
a 1100 1263
a 1100 1264
a 1100 1265
a 1100 1266
a 1179 1125
a 1179 1258
a 1179 1215
a 1179 1214
a 1179 1201
a 1179 1192
a 1179 1177
a 1179 1178
a 1179 1183
a 1179 1182
a 1179 1155
a 1179 1267
a 1179 1191
a 1163 1164
a 1163 1165
a 1163 1151
a 1163 1156
a 1164 1163
a 1164 1165
a 1164 1151
a 1164 1156
a 1165 1163
a 1165 1164
a 1165 1151
a 1156 1163
a 1156 1164
a 1156 1150
a 1134 1122
a 1134 1205
a 1134 1208
a 1134 1209
a 1217 1225
a 1217 1121
a 1217 1219
a 1217 1222
a 1217 1224
a 1225 1217
a 1225 1256
a 1225 1253
a 1225 1257
a 1225 1104
a 1225 1219
a 1225 1254
a 1225 1121
a 1225 1181
a 1225 1268
a 1225 1146
a 1225 1269
a 1225 1270
a 1225 1224
a 1225 1271
a 1225 1172
a 1219 1217
a 1219 1121
a 1219 1253
a 1219 1225
a 1219 1181
a 1219 1246
a 1219 1254
a 1219 1244
a 1245 1096
a 1258 1214
a 1258 1179
a 1258 1215
a 1258 1192
a 1214 1258
a 1214 1179
a 1214 1201
a 1214 1192
a 1215 1258
a 1215 1179
a 1215 1272
a 1215 1095
a 1215 1201
a 1215 1237
a 1215 1242
a 1215 1273
a 1256 1257
a 1256 1225
a 1256 1104
a 1256 1268
a 1256 1254
a 1257 1256
a 1257 1225
a 1257 1254
a 1257 1104
a 1257 1268
a 1257 1274
a 1257 1275
a 1257 1276
a 1257 1277
a 1257 1278
a 1104 1256
a 1104 1225
a 1104 1257
a 1104 1254
a 1104 1274
a 1104 1268
a 1104 1056
a 1104 1181
a 1268 1256
a 1268 1257
a 1268 1104
a 1268 1274
a 1268 1279
a 1268 1225
a 1268 1276
a 1268 1280
a 1268 1278
a 1233 1232
a 1233 1236
a 1236 1233
a 1236 1232
a 1146 1121
a 1146 1145
a 1146 1115
a 1146 1225
a 1234 1235
a 1234 1232
a 1234 1242
a 1234 1209
a 1234 1281
a 1234 1282
a 1234 1283
a 1234 346
a 1234 1284
a 1234 1285
a 1234 1286
a 1234 1287
a 1234 1131
a 1234 1185
a 1234 1288
a 1234 1289
a 1234 1290
a 1234 1291
a 1234 1292
a 1234 1293
a 1234 1294
a 1234 1295
a 1234 1296
a 1234 1297
a 1234 1298
a 1235 1234
a 1235 1237
a 1235 1232
a 1235 1286
a 1235 1299
a 1235 1300
a 1235 1301
a 1235 1302
a 1235 1285
a 1218 1121
a 1272 1215
a 1272 1242
a 1272 1273
a 1272 1303
a 1272 1304
a 1272 1243
a 1242 1272
a 1242 1095
a 1242 1237
a 1242 1215
a 1242 1178
a 1242 1234
a 1242 1209
a 1242 1281
a 1242 1305
a 1273 1272
a 1273 1306
a 1273 1212
a 1273 1215
a 1303 1272
a 1303 1307
a 1303 1147
a 1303 1243
a 1211 1127
a 1211 1213
a 1211 1212
a 1211 1209
a 1211 1126
a 1213 1211
a 1213 1127
a 1213 1212
a 1212 1211
a 1212 1306
a 1212 1127
a 1212 1213
a 1212 1273
a 1306 1273
a 1306 1212
a 1237 1235
a 1237 1095
a 1237 1215
a 1237 1242
a 1237 1232
a 1237 1192
a 1308 1305
a 1305 1308
a 1305 1242
a 1305 1309
a 1126 1123
a 1126 1127
a 1126 1128
a 1126 1211
a 1126 1209
a 1128 1126
a 1128 1123
a 1128 1127
a 1111 1238
a 1111 1232
a 1111 1095
a 1111 1060
a 1238 1111
a 1238 1232
a 1157 1151
a 1157 1150
a 1157 1167
a 1167 1151
a 1167 1157
a 1167 1155
a 1167 1310
a 1167 1311
a 1167 1191
a 1167 1173
a 1167 1269
a 1167 1312
a 1167 1172
a 1167 1187
a 1167 1313
a 1167 1287
a 1167 1185
a 1167 1292
a 1167 1314
a 1167 1174
a 1167 1315
a 1167 1316
a 1167 1317
a 1167 1318
a 1167 1319
a 1167 1320
a 1167 1321
a 1167 1322
a 1167 1323
a 1167 1324
a 1167 1325
a 1167 1326
a 1207 1205
a 1207 1209
a 1207 1210
a 1207 1327
a 1208 1205
a 1208 1134
a 1208 1209
a 1209 1205
a 1209 1134
a 1209 1211
a 1209 1207
a 1209 1242
a 1209 1234
a 1209 1208
a 1209 1210
a 1209 1126
a 1210 1205
a 1210 1207
a 1210 1209
a 1210 1138
a 1210 1159
a 1210 1328
a 1210 1329
a 1210 1330
a 1304 1272
a 1220 1121
a 1331 1332
a 1331 1333
a 1331 1334
a 1331 1142
a 1331 1335
a 1331 1336
a 1331 1200
a 1331 1337
a 1331 1338
a 1331 1339
a 1331 1340
a 1331 1341
a 1331 346
a 1331 1342
a 1331 1343
a 1332 1331
a 1332 1333
a 1332 1334
a 1333 1331
a 1333 1332
a 1333 1334
a 1334 1331
a 1334 1332
a 1334 1333
a 1334 1138
a 1334 1142
a 1334 1200
a 1334 1344
a 1334 1301
a 1334 1337
a 1334 1343
a 1334 1345
a 1346 1280
a 1346 1216
a 1346 1260
a 1280 1346
a 1280 1216
a 1280 1260
a 1280 1183
a 1280 1268
a 1280 1347
a 1280 1348
a 1280 1349
a 1216 1346
a 1216 1201
a 1216 1280
a 1216 1246
a 1216 1260
a 1260 1346
a 1260 1216
a 1260 1280
a 1260 1259
a 1260 1183
a 1260 1192
a 1260 1224
a 1138 1120
a 1138 1121
a 1138 1334
a 1138 1115
a 1138 1135
a 1138 1210
a 1103 1056
a 1103 1105
a 1103 1243
a 1103 1097
a 1105 1103
a 1105 1097
a 1105 1056
a 1105 1184
a 1105 1193
a 1105 1186
a 1105 1169
a 1105 1350
a 1105 1243
a 1105 1351
a 1105 1262
a 1105 1352
a 1105 1095
a 1105 1353
a 1105 1347
a 1105 1192
a 1105 1155
a 1105 1354
a 1105 1265
a 1105 1348
a 1105 1313
a 1243 1103
a 1243 1184
a 1243 1193
a 1243 1186
a 1243 1105
a 1243 1303
a 1243 1272
a 1243 1350
a 1243 1307
a 1243 1095
a 1243 1147
a 1274 1104
a 1274 1257
a 1274 1268
a 1202 1203
a 1202 1166
a 1203 1202
a 1203 1166
a 1177 1183
a 1177 1179
a 1177 1155
a 1177 1192
a 1183 1177
a 1183 1178
a 1183 1179
a 1183 1182
a 1183 1259
a 1183 1260
a 1183 1155
a 1183 1192
a 1183 1280
a 1178 1183
a 1178 1204
a 1178 1179
a 1178 1242
a 1178 1182
a 1178 1166
a 1178 1155
a 1204 1178
a 1204 1166
a 1204 1182
a 1204 1185
a 1204 1192
a 1182 1178
a 1182 1179
a 1182 1166
a 1182 1183
a 1182 1204
a 1182 1155
a 1182 1168
a 1182 1169
a 1182 346
a 1182 1287
a 1182 1131
a 1307 1303
a 1307 1243
a 1307 1147
a 1307 1265
a 1307 1350
a 1159 1248
a 1159 1150
a 1159 1160
a 1159 1161
a 1159 1158
a 1159 1328
a 1159 1210
a 1159 1162
a 1159 1155
a 1140 1139
a 1140 1141
a 1140 1115
a 1255 1181
a 1255 1355
a 1255 1356
a 1259 1183
a 1259 1260
a 1259 1192
a 1261 1192
a 1168 1151
a 1168 1357
a 1168 1158
a 1168 1169
a 1168 1166
a 1168 1182
a 1168 1358
a 1169 1151
a 1169 1105
a 1169 1168
a 1169 1359
a 1169 1311
a 1169 1166
a 1169 1095
a 1169 1182
a 1169 1192
a 1161 1151
a 1161 1150
a 1161 1160
a 1161 1158
a 1161 1159
a 1161 1162
a 1161 1155
a 1184 1350
a 1184 1155
a 1184 1186
a 1184 1243
a 1184 1105
a 1350 1184
a 1350 1193
a 1350 1265
a 1350 1105
a 1350 1262
a 1350 1243
a 1350 1307
a 1350 1360
a 1186 1184
a 1186 1193
a 1186 1243
a 1186 1095
a 1186 1353
a 1186 1155
a 1186 1105
a 1186 1361
a 1186 1264
a 1186 1313
a 1186 1360
a 1186 1362
a 1186 1354
a 1186 1309
a 1173 1224
a 1173 1222
a 1173 1145
a 1173 1363
a 1173 1151
a 1173 1194
a 1173 1364
a 1173 1171
a 1173 1172
a 1173 1170
a 1173 1155
a 1173 1167
a 1173 1365
a 1173 1343
a 1173 1366
a 1173 1367
a 1173 1368
a 1173 1174
a 1224 1173
a 1224 1121
a 1224 1269
a 1224 1145
a 1224 1217
a 1224 1222
a 1224 1363
a 1224 1260
a 1224 1199
a 1224 1225
a 1224 1343
a 1222 1173
a 1222 1121
a 1222 1145
a 1222 1217
a 1222 1363
a 1222 1224
a 1145 1173
a 1145 1221
a 1145 1121
a 1145 1222
a 1145 1146
a 1145 1363
a 1145 1224
a 1145 1115
a 1145 1226
a 1363 1173
a 1363 1145
a 1363 1222
a 1363 1224
a 1142 1331
a 1142 1335
a 1142 1115
a 1142 1334
a 1142 1144
a 1335 1331
a 1335 1142
a 1193 1186
a 1193 1243
a 1193 1265
a 1193 1350
a 1193 1262
a 1193 1095
a 1193 1105
a 1193 1264
a 1193 1155
a 1265 1193
a 1265 1350
a 1265 1262
a 1265 1307
a 1265 1105
a 1265 1100
a 1265 1362
a 1265 1266
a 1265 1369
a 1262 1193
a 1262 1265
a 1262 1105
a 1262 1350
a 1262 1351
a 1262 1352
a 1262 1347
a 1262 1100
a 1185 1190
a 1185 1204
a 1185 1189
a 1185 1188
a 1185 1370
a 1185 1155
a 1185 1192
a 1185 1187
a 1185 1371
a 1185 1372
a 1185 1234
a 1185 1287
a 1185 1167
a 1190 1185
a 1190 1188
a 1190 1189
a 1190 1155
a 1190 1370
a 1190 1187
a 1190 1372
a 1190 1194
a 1189 1185
a 1189 1188
a 1189 1190
a 1189 1370
a 1189 1155
a 1189 1187
a 1189 1372
a 1188 1185
a 1188 1190
a 1188 1155
a 1188 1189
a 1370 1185
a 1370 1189
a 1370 1190
a 1281 1234
a 1281 1242
a 1281 1282
a 1282 1281
a 1282 1234
a 1282 1283
a 1144 1142
a 1144 1115
a 1279 1268
a 1158 1150
a 1158 1160
a 1158 1168
a 1158 1161
a 1158 1358
a 1158 1159
a 1158 1162
a 1158 1357
a 1158 1155
a 1160 1150
a 1160 1158
a 1160 1159
a 1160 1197
a 1160 1161
a 1160 1162
a 1160 1155
a 1162 1150
a 1162 1160
a 1162 1161
a 1162 1159
a 1162 1158
a 1162 1155
a 1373 1197
a 1373 1310
a 1197 1373
a 1197 1310
a 1197 1160
a 1197 1135
a 1310 1373
a 1310 1197
a 1310 1167
a 1310 1311
a 1250 1141
a 1129 1123
a 1129 1130
a 1130 1129
a 1130 1123
a 1143 1139
a 1143 1141
a 1143 1115
a 1311 1310
a 1311 1359
a 1311 1167
a 1311 1169
a 1374 1309
a 1309 1374
a 1309 1375
a 1309 1305
a 1309 1186
a 1309 1354
a 1309 1264
a 1353 1186
a 1353 1105
a 1353 1347
a 1221 1145
a 1221 1121
a 1221 1226
a 1226 1221
a 1226 1121
a 1226 1145
a 1187 1155
a 1187 1191
a 1187 1185
a 1187 1190
a 1187 1194
a 1187 1371
a 1187 1189
a 1187 1372
a 1187 1167
a 1187 1313
a 1187 1264
a 1191 1187
a 1191 1179
a 1191 1167
a 1191 1155
a 1223 1121
a 1269 1224
a 1269 1167
a 1269 1225
a 1351 1105
a 1351 1262
a 1351 1347
a 1351 1352
a 1352 1105
a 1352 1262
a 1352 1347
a 1352 1351
a 1347 1105
a 1347 1262
a 1347 1351
a 1347 1353
a 1347 1352
a 1347 1349
a 1347 1280
a 1347 1348
a 1147 1303
a 1147 1243
a 1147 1115
a 1147 1307
a 1267 1179
a 1357 1168
a 1357 1358
a 1357 1158
a 1358 1168
a 1358 1357
a 1358 1158
a 1359 1169
a 1359 1311
a 1249 1139
a 1328 1159
a 1328 1210
a 1170 1151
a 1170 1173
a 1170 1172
a 1170 1171
a 1170 1133
a 1170 1155
a 1170 1131
a 1171 1151
a 1171 1173
a 1171 1172
a 1171 1170
a 1171 1174
a 1172 1151
a 1172 1173
a 1172 1171
a 1172 1170
a 1172 1167
a 1172 1364
a 1172 1225
a 1172 1376
a 1172 1377
a 1172 1378
a 1194 1173
a 1194 1187
a 1194 1372
a 1194 1190
a 1194 1155
a 1194 1360
a 1194 1379
a 1364 1173
a 1364 1312
a 1364 1343
a 1364 1172
a 1364 1174
a 1364 1338
a 1364 1337
a 1336 1331
a 1336 1200
a 1264 1193
a 1264 1361
a 1264 1186
a 1264 1313
a 1264 1354
a 1264 1100
a 1264 1309
a 1264 1187
a 1380 1275
a 1275 1380
a 1275 1257
a 1275 1277
a 1275 1276
a 1329 1330
a 1329 1210
a 1329 1301
a 1329 1286
a 1330 1329
a 1330 1210
a 1360 1372
a 1360 1362
a 1360 1186
a 1360 1350
a 1360 1194
a 1360 1379
a 1360 1376
a 1360 1270
a 1360 1381
a 1360 1382
a 1360 1378
a 1360 1383
a 1360 1384
a 1360 1385
a 1360 1386
a 1360 1387
a 1360 1388
a 1360 1389
a 1360 1390
a 1360 1391
a 1360 1290
a 1360 1392
a 1360 1393
a 1360 1293
a 1360 1394
a 1360 1395
a 1360 1320
a 1360 1396
a 1360 1397
a 1360 1398
a 1372 1360
a 1372 1189
a 1372 1362
a 1372 1194
a 1372 1190
a 1372 1187
a 1372 1185
a 1372 1287
a 1372 1379
a 1362 1360
a 1362 1372
a 1362 1186
a 1362 1265
a 1362 1266
a 1362 1369
a 1283 1282
a 1283 1234
a 1198 1199
a 1198 1135
a 1198 1229
a 1198 1252
a 1198 1141
a 1198 1228
a 1198 1251
a 1198 1399
a 1198 1400
a 1198 1343
a 1198 1401
a 1198 1402
a 1198 1403
a 1198 1339
a 1199 1198
a 1199 1251
a 1199 1338
a 1199 1135
a 1199 1229
a 1199 1252
a 1199 1141
a 1199 1228
a 1199 1224
a 1229 1198
a 1229 1251
a 1229 1121
a 1229 1199
a 1229 1228
a 1229 1252
a 1229 1141
a 1229 1343
a 1229 1312
a 1252 1198
a 1252 1251
a 1252 1199
a 1252 1228
a 1252 1229
a 1252 1141
a 1252 1230
a 1228 1198
a 1228 1251
a 1228 1227
a 1228 1121
a 1228 1199
a 1228 1229
a 1228 1141
a 1228 1252
a 1251 1198
a 1251 1199
a 1251 1229
a 1251 1252
a 1251 1141
a 1251 1228
a 1251 1227
a 1227 1121
a 1227 1200
a 1227 1228
a 1227 1141
a 1227 1251
a 1200 1227
a 1200 1336
a 1200 1135
a 1200 1141
a 1200 1331
a 1200 1404
a 1200 1334
a 1200 1405
a 1200 1341
a 1200 1337
a 1200 1343
a 1200 346
a 1379 346
a 1379 1372
a 1379 1194
a 1379 1360
a 346 1379
a 346 1287
a 346 1182
a 346 1131
a 346 1234
a 346 1340
a 346 1375
a 346 1337
a 346 1200
a 346 1343
a 346 1339
a 346 1331
a 346 1400
a 346 315
a 346 345
a 1277 1275
a 1277 1276
a 1277 1257
a 1276 1275
a 1276 1257
a 1276 1268
a 1276 1277
a 1131 1123
a 1131 1170
a 1131 346
a 1131 1133
a 1131 1182
a 1131 1301
a 1131 1234
a 1131 1375
a 1131 1406
a 1131 1290
a 1131 1407
a 1131 1408
a 1131 1292
a 1131 1289
a 1131 1315
a 1131 1409
a 1131 1410
a 1131 1411
a 1131 1412
a 1131 1386
a 1371 1187
a 1371 1185
a 1371 1354
a 1132 1123
a 1132 1300
a 1133 1170
a 1133 1155
a 1133 1135
a 1133 1131
a 1133 1123
a 1361 1264
a 1361 1313
a 1361 1186
a 1313 1361
a 1313 1186
a 1313 1264
a 1313 1354
a 1313 1105
a 1313 1187
a 1313 1167
a 1355 1255
a 1355 1356
a 1356 1355
a 1356 1255
a 1286 1235
a 1286 1300
a 1286 1301
a 1286 1234
a 1286 1329
a 1300 1286
a 1300 1235
a 1300 1132
a 1375 1309
a 1375 348
a 1375 1413
a 1375 349
a 1375 1131
a 1375 346
a 1299 1235
a 1338 1199
a 1338 1312
a 1338 1364
a 1338 1337
a 1338 1343
a 1338 1331
a 1263 1100
a 1354 1371
a 1354 1186
a 1354 1264
a 1354 1105
a 1354 1313
a 1354 1309
a 1287 346
a 1287 1182
a 1287 1372
a 1287 1234
a 1287 1185
a 1287 1167
a 1287 1288
a 1287 1289
a 1287 1378
a 1312 1167
a 1312 1364
a 1312 1229
a 1312 1343
a 1312 1338
a 1312 1340
a 1312 1337
a 1312 1292
a 1312 1315
a 1312 1414
a 1312 1415
a 1312 1416
a 1312 1417
a 1312 1418
a 1312 1419
a 1312 1420
a 1312 1421
a 1312 1422
a 1312 1423
a 1312 1424
a 1312 1425
a 1301 1235
a 1301 1286
a 1301 1337
a 1301 1329
a 1301 1334
a 1301 1131
a 1365 1173
a 1365 1367
a 1365 1368
a 1365 1366
a 1343 1173
a 1343 1364
a 1343 1229
a 1343 1224
a 1343 1312
a 1343 1426
a 1343 1338
a 1343 1337
a 1343 1200
a 1343 346
a 1343 1400
a 1343 1198
a 1343 1345
a 1343 1331
a 1343 1334
a 1343 345
a 1343 1339
a 1343 1427
a 1343 1428
a 1343 1429
a 1343 1430
a 1343 1292
a 1343 1431
a 1343 1174
a 1343 1418
a 1343 1432
a 1343 1433
a 1343 1419
a 1343 1434
a 1343 1435
a 1343 1436
a 1343 1437
a 1343 1438
a 1343 1421
a 1343 1439
a 1366 1173
a 1366 1367
a 1366 1368
a 1366 1365
a 1367 1173
a 1367 1368
a 1367 1365
a 1367 1366
a 1368 1173
a 1368 1367
a 1368 1366
a 1368 1365
a 1349 1347
a 1349 1348
a 1349 1280
a 1349 1440
a 1348 1347
a 1348 1349
a 1348 1280
a 1348 1105
a 1174 1175
a 1174 1151
a 1174 1171
a 1174 1364
a 1174 1173
a 1174 1441
a 1174 1292
a 1174 1442
a 1174 1167
a 1174 1409
a 1174 1340
a 1174 1414
a 1174 1410
a 1174 1443
a 1174 1444
a 1174 1431
a 1174 1343
a 1175 1174
a 1175 1151
a 1337 1405
a 1337 1301
a 1337 1334
a 1337 1312
a 1337 1338
a 1337 1364
a 1337 1331
a 1337 1200
a 1337 1343
a 1337 1339
a 1337 346
a 1405 1337
a 1405 1200
a 1404 1200
a 1302 1235
a 1327 1207
a 1344 1334
a 348 347
a 348 349
a 348 1375
a 349 347
a 349 348
a 349 1375
a 1445 1176
a 1176 1445
a 1176 1151
a 1284 1234
a 1285 1234
a 1285 1235
a 1230 1121
a 1230 1252
a 1230 1401
a 1230 1446
a 1270 1225
a 1270 1271
a 1270 1376
a 1270 1447
a 1270 1360
a 1270 1288
a 1270 1448
a 1270 1401
a 1271 1270
a 1271 1225
a 1449 1401
a 1449 1340
a 1401 1449
a 1401 1230
a 1401 1446
a 1401 1340
a 1401 1270
a 1401 1198
a 1266 1265
a 1266 1362
a 1266 1100
a 1278 1257
a 1278 1268
a 1369 1362
a 1369 1265
a 1369 1450
a 1369 1384
a 1369 1381
a 1369 1451
a 1376 1447
a 1376 1270
a 1376 1360
a 1376 1172
a 1376 1452
a 1376 1453
a 1376 1454
a 1376 1455
a 1376 1289
a 1376 1456
a 1376 1457
a 1376 1458
a 1447 1376
a 1447 1270
a 1340 1449
a 1340 1312
a 1340 1401
a 1340 346
a 1340 1342
a 1340 1331
a 1340 1409
a 1340 1292
a 1340 1459
a 1340 1174
a 1340 1443
a 1340 1410
a 1340 1460
a 1340 1411
a 1340 1461
a 1340 1462
a 1340 1463
a 1340 1464
a 1340 1431
a 1340 1465
a 1413 1375
a 1446 1230
a 1446 1401
a 1440 1349
a 1399 1198
a 1450 1369
a 1406 1131
a 1406 1407
a 1406 1290
a 1406 1408
a 1406 1459
a 1288 1234
a 1288 1287
a 1288 1407
a 1288 1270
a 1426 1343
a 1441 1174
a 1381 1360
a 1381 1369
a 1381 1466
a 1381 1451
a 1381 1383
a 1467 1407
a 1407 1467
a 1407 1406
a 1407 1290
a 1407 1131
a 1407 1288
a 1407 1408
a 1339 1331
a 1339 1468
a 1339 1464
a 1339 1341
a 1339 1337
a 1339 346
a 1339 1469
a 1339 1342
a 1339 1470
a 1339 1343
a 1339 1345
a 1339 1198
a 1339 1400
a 1384 1369
a 1384 1382
a 1384 1360
a 1384 1385
a 1451 1369
a 1451 1471
a 1451 1377
a 1451 1383
a 1451 1453
a 1451 1381
a 1451 1472
a 1451 1473
a 1451 1474
a 1471 1377
a 1471 1451
a 1471 1453
a 1377 1471
a 1377 1378
a 1377 1451
a 1377 1172
a 1377 1453
a 1453 1471
a 1453 1377
a 1453 1451
a 1453 1376
a 1453 1452
a 1453 1315
a 1453 1317
a 1292 1174
a 1292 1442
a 1292 1315
a 1292 1289
a 1292 1312
a 1292 1167
a 1292 1409
a 1292 1443
a 1292 1290
a 1292 1410
a 1292 1340
a 1292 1460
a 1292 1131
a 1292 1411
a 1292 1293
a 1292 1444
a 1292 1475
a 1292 1343
a 1292 1291
a 1292 1476
a 1292 1477
a 1292 1478
a 1292 1479
a 1292 1480
a 1292 1234
a 1292 1481
a 1442 1292
a 1442 1174
a 1315 1292
a 1315 1312
a 1315 1289
a 1315 1131
a 1315 1482
a 1315 1453
a 1315 1167
a 1289 1292
a 1289 1378
a 1289 1234
a 1289 1287
a 1289 1459
a 1289 1315
a 1289 1482
a 1289 1290
a 1289 1131
a 1289 1483
a 1289 1484
a 1289 1376
a 1289 1456
a 1289 1458
a 1289 1293
a 1289 1317
a 1468 1342
a 1468 1470
a 1468 1339
a 1468 1464
a 1468 1469
a 1468 1341
a 1342 1468
a 1342 1340
a 1342 1464
a 1342 1341
a 1342 1469
a 1342 1470
a 1342 1339
a 1342 1331
a 1342 345
a 1342 1345
a 1470 1468
a 1470 1464
a 1470 1341
a 1470 1469
a 1470 1342
a 1470 1339
a 1464 1468
a 1464 1342
a 1464 1470
a 1464 1339
a 1464 1469
a 1464 1341
a 1464 1340
a 1464 1463
a 1464 1485
a 1464 1461
a 1464 1431
a 1464 1486
a 1469 1468
a 1469 1464
a 1469 1341
a 1469 1342
a 1469 1470
a 1469 1339
a 1341 1468
a 1341 1464
a 1341 1342
a 1341 1200
a 1341 1470
a 1341 1339
a 1341 1331
a 1341 1469
a 1341 1345
a 1466 1381
a 1378 1289
a 1378 1377
a 1378 1172
a 1378 1287
a 1378 1383
a 1378 1360
a 1290 1407
a 1290 1131
a 1290 1408
a 1290 1406
a 1290 1292
a 1290 1289
a 1290 1234
a 1290 1293
a 1290 1360
a 1290 1390
a 1290 1487
a 1290 1298
a 1290 1391
a 1408 1290
a 1408 1131
a 1408 1406
a 1408 1407
a 1408 1412
a 1408 1488
a 1383 1451
a 1383 1378
a 1383 1381
a 1383 1360
a 1383 1472
a 1400 346
a 1400 1198
a 1400 1343
a 1400 1403
a 1400 1339
a 1400 1489
a 1400 1490
a 1400 1491
a 1400 1452
a 1400 1438
a 1400 1427
a 1400 1492
a 1382 1360
a 1382 1384
a 1382 1385
a 1385 1382
a 1385 1384
a 1385 1360
a 1448 1270
a 1448 1493
a 1314 1167
a 1345 1343
a 1345 1334
a 1345 1342
a 1345 345
a 1345 1341
a 1345 1339
a 345 315
a 345 1342
a 345 1343
a 345 346
a 345 1345
a 1452 1376
a 1452 1453
a 1452 1494
a 1452 1455
a 1452 1491
a 1452 1492
a 1452 1400
a 1452 1317
a 1452 1495
a 1452 1496
a 1409 1174
a 1409 1292
a 1409 1443
a 1409 1459
a 1409 1410
a 1409 1340
a 1409 1460
a 1409 1411
a 1409 1131
a 1409 1412
a 1443 1409
a 1443 1292
a 1443 1340
a 1443 1460
a 1443 1174
a 1443 1410
a 1443 1411
a 1459 1409
a 1459 1289
a 1459 1340
a 1459 1406
a 1459 1415
a 1459 1497
a 1410 1409
a 1410 1292
a 1410 1340
a 1410 1460
a 1410 1174
a 1410 1443
a 1410 1411
a 1410 1131
a 1410 1486
a 1410 1498
a 1410 1293
a 1460 1409
a 1460 1292
a 1460 1340
a 1460 1410
a 1460 1443
a 1460 1411
a 1411 1409
a 1411 1292
a 1411 1340
a 1411 1460
a 1411 1410
a 1411 1443
a 1411 1131
a 1411 1414
a 1411 1486
a 1411 1498
a 1411 1478
a 1411 1412
a 1482 1289
a 1482 1499
a 1482 1315
a 1482 1489
a 1482 1500
a 1482 1465
a 1482 1423
a 1482 1491
a 1482 1501
a 1482 1502
a 1482 1503
a 1482 1425
a 1482 1504
a 1493 1448
a 1499 1489
a 1499 1482
a 1499 1473
a 1489 1499
a 1489 1482
a 1489 1317
a 1489 1490
a 1489 1400
a 1489 1403
a 1489 1505
a 1489 1495
a 1489 1506
a 1489 1507
a 1489 1508
a 1473 1499
a 1473 1451
a 1473 1474
a 1472 1451
a 1472 1383
a 1474 1451
a 1474 1473
a 1474 1428
a 1414 1174
a 1414 1312
a 1414 1480
a 1414 1411
a 1414 1509
a 1414 1486
a 1414 1510
a 1414 1478
a 1414 1511
a 1414 1512
a 1414 1513
a 1414 1514
a 1414 1515
a 1516 1427
a 1516 1402
a 1427 1516
a 1427 1343
a 1427 1517
a 1427 1465
a 1427 1438
a 1427 1400
a 1402 1516
a 1402 1198
a 1316 1167
a 1403 1198
a 1403 1400
a 1403 1490
a 1403 1495
a 1403 1518
a 1403 1496
a 1403 1489
a 1403 1519
a 1403 1505
a 1412 1488
a 1412 1408
a 1412 1409
a 1412 1131
a 1412 1520
a 1412 1521
a 1412 1415
a 1412 1522
a 1412 1411
a 1412 1523
a 1412 1524
a 1412 1298
a 1412 1475
a 1412 1511
a 1412 1515
a 1488 1412
a 1488 1408
a 1500 1482
a 1454 1376
a 1454 1455
a 1454 1525
a 1455 1376
a 1455 1452
a 1455 1454
a 1455 1526
a 1455 1527
a 1386 1388
a 1386 1360
a 1386 1389
a 1386 1387
a 1386 1390
a 1386 1391
a 1386 1131
a 1386 1528
a 1386 1297
a 1386 1529
a 1386 1530
a 1388 1386
a 1388 1387
a 1388 1360
a 1388 1389
a 1388 1390
a 1388 1391
a 1388 1531
a 1389 1386
a 1389 1387
a 1389 1388
a 1389 1360
a 1389 1390
a 1389 1391
a 1389 1317
a 1389 1532
a 1389 1392
a 1389 1293
a 1389 1529
a 1389 1530
a 1389 1533
a 1389 1534
a 1387 1386
a 1387 1388
a 1387 1360
a 1387 1389
a 1387 1390
a 1387 1391
a 1390 1386
a 1390 1387
a 1390 1388
a 1390 1360
a 1390 1389
a 1390 1391
a 1390 1290
a 1390 1531
a 1391 1386
a 1391 1387
a 1391 1388
a 1391 1360
a 1391 1390
a 1391 1389
a 1391 1290
a 1391 1487
a 1391 1392
a 1391 1393
a 1391 1535
a 1293 1292
a 1293 1290
a 1293 1298
a 1293 1410
a 1293 1289
a 1293 1234
a 1293 1536
a 1293 1360
a 1293 1537
a 1293 1389
a 1293 1456
a 1293 1395
a 1293 1396
a 1444 1292
a 1444 1174
a 1538 1539
a 1538 1491
a 1539 1538
a 1539 1540
a 1539 1517
a 1539 1430
a 1540 1539
a 1540 1517
a 1540 1430
a 1517 1540
a 1517 1539
a 1517 1430
a 1517 1427
a 1517 1465
a 1430 1540
a 1430 1428
a 1430 1539
a 1430 1517
a 1430 1343
a 1428 1474
a 1428 1343
a 1428 1430
a 1483 1289
a 1483 1535
a 1483 1541
a 1461 1340
a 1461 1464
a 1461 1431
a 1461 1462
a 1461 1463
a 1461 1485
a 1462 1340
a 1462 1431
a 1462 1461
a 1463 1340
a 1463 1464
a 1463 1485
a 1463 1461
a 1431 1340
a 1431 1462
a 1431 1461
a 1431 1464
a 1431 1343
a 1431 1174
a 1465 1340
a 1465 1517
a 1465 1427
a 1465 1416
a 1465 1492
a 1465 1482
a 1465 1437
a 1465 1491
a 1485 1464
a 1485 1463
a 1485 1461
a 1494 1452
a 1429 1343
a 1429 1419
a 1317 1489
a 1317 1453
a 1317 1167
a 1317 1497
a 1317 1532
a 1317 1389
a 1317 1452
a 1317 1542
a 1317 1495
a 1317 1289
a 1317 1543
a 1317 1519
a 1317 1544
a 1317 1545
a 1317 1546
a 1490 1489
a 1490 1400
a 1490 1403
a 1318 1167
a 1318 1501
a 1318 1425
a 1484 1289
a 1484 1547
a 1456 1376
a 1456 1289
a 1456 1458
a 1456 1548
a 1456 1549
a 1456 1293
a 1457 1376
a 1457 1518
a 1458 1376
a 1458 1289
a 1458 1456
a 1475 1292
a 1475 1291
a 1475 1478
a 1475 1298
a 1475 1297
a 1475 1524
a 1475 1296
a 1475 1412
a 1291 1292
a 1291 1234
a 1291 1298
a 1291 1475
a 1476 1292
a 1476 1543
a 1476 1477
a 1477 1292
a 1477 1543
a 1477 1322
a 1477 1476
a 1491 1538
a 1491 1452
a 1491 1492
a 1491 1400
a 1491 1465
a 1491 1482
a 1491 1508
a 1491 1504
a 1491 1420
a 1415 1312
a 1415 1459
a 1415 1497
a 1415 1522
a 1415 1412
a 1415 1550
a 1497 1415
a 1497 1551
a 1497 1317
a 1497 1459
a 1497 1544
a 1551 1497
a 1487 1290
a 1487 1391
a 1298 1290
a 1298 1291
a 1298 1293
a 1298 1552
a 1298 1475
a 1298 1297
a 1298 1511
a 1298 1296
a 1298 1412
a 1298 1234
a 1298 1295
a 1543 1477
a 1543 1476
a 1543 1322
a 1543 1542
a 1543 1545
a 1543 1317
a 1543 1325
a 1322 1543
a 1322 1477
a 1322 1167
a 1322 1325
a 1322 1503
a 1322 1512
a 1322 1553
a 1322 1545
a 1322 1550
a 1322 1529
a 1322 1554
a 1322 1294
a 1322 1295
a 1531 1388
a 1531 1390
a 1486 1464
a 1486 1414
a 1486 1410
a 1486 1480
a 1486 1509
a 1486 1411
a 1486 1552
a 1486 1439
a 1492 1491
a 1492 1452
a 1492 1400
a 1492 1465
a 1492 1508
a 1492 1504
a 1492 1555
a 1520 1521
a 1520 1412
a 1521 1520
a 1521 1412
a 1521 1556
a 1521 1524
a 1521 1522
a 1521 1557
a 1521 1558
a 1521 1545
a 1521 1559
a 1480 1414
a 1480 1486
a 1480 1509
a 1480 1292
a 1480 1479
a 1480 1481
a 1480 1560
a 1480 1561
a 1509 1414
a 1509 1486
a 1509 1480
a 1532 1317
a 1532 1389
a 1438 1427
a 1438 1400
a 1438 1432
a 1438 1434
a 1438 1343
a 1498 1410
a 1498 1411
a 1562 1496
a 1496 1562
a 1496 1495
a 1496 1403
a 1496 1563
a 1496 1452
a 1496 1564
a 1496 1565
a 1496 1508
a 1518 1457
a 1518 1403
a 1518 1519
a 1518 1566
a 1518 1505
a 1518 1567
a 1518 1321
a 1519 1568
a 1519 1403
a 1519 1518
a 1519 1545
a 1519 1546
a 1519 1317
a 1519 1505
a 1519 1544
a 1568 1519
a 1526 1455
a 1526 1396
a 1526 1569
a 1526 1566
a 1294 1542
a 1294 1295
a 1294 1234
a 1294 1545
a 1294 1296
a 1294 1570
a 1294 1524
a 1294 1322
a 1542 1294
a 1542 1543
a 1542 1545
a 1542 1317
a 1542 1320
a 1552 1298
a 1552 1486
a 1552 1439
a 1439 1552
a 1439 1486
a 1439 1433
a 1439 1343
a 1439 1418
a 1418 1343
a 1418 1435
a 1418 1433
a 1418 1312
a 1418 1439
a 1418 1571
a 1435 1418
a 1435 1433
a 1435 1343
a 1433 1418
a 1433 1343
a 1433 1435
a 1433 1439
a 1432 1343
a 1432 1438
a 1432 1419
a 1432 1422
a 1432 1437
a 1432 1416
a 1432 1572
a 1432 1573
a 1522 1415
a 1522 1412
a 1522 1521
a 1522 1559
a 1522 1556
a 1522 1296
a 1544 1497
a 1544 1519
a 1544 1317
a 1544 1545
a 1544 1546
a 1548 1456
a 1419 1343
a 1419 1416
a 1419 1429
a 1419 1437
a 1419 1422
a 1419 1312
a 1419 1421
a 1419 1432
a 1419 1574
a 1419 1575
a 1419 1561
a 1416 1419
a 1416 1437
a 1416 1312
a 1416 1465
a 1416 1432
a 1416 1422
a 1416 1421
a 1495 1452
a 1495 1496
a 1495 1317
a 1495 1403
a 1495 1489
a 1525 1454
a 1545 1542
a 1545 1543
a 1545 1519
a 1545 1544
a 1545 1546
a 1545 1317
a 1545 1294
a 1545 1553
a 1545 1322
a 1545 1324
a 1545 1503
a 1545 1521
a 1545 1524
a 1545 1576
a 1392 1360
a 1392 1391
a 1392 1389
a 1392 1393
a 1392 1577
a 1393 1360
a 1393 1391
a 1393 1392
a 1510 1511
a 1510 1513
a 1510 1414
a 1510 1512
a 1510 1515
a 1511 1510
a 1511 1513
a 1511 1414
a 1511 1515
a 1511 1512
a 1511 1298
a 1511 1412
a 1513 1510
a 1513 1511
a 1513 1414
a 1513 1514
a 1513 1515
a 1513 1578
a 1512 1510
a 1512 1414
a 1512 1511
a 1512 1322
a 1515 1510
a 1515 1511
a 1515 1513
a 1515 1414
a 1515 1578
a 1515 1524
a 1515 1556
a 1515 1412
a 1515 1296
a 1574 1575
a 1574 1573
a 1574 1419
a 1574 1579
a 1575 1574
a 1575 1419
a 1437 1416
a 1437 1465
a 1437 1434
a 1437 1436
a 1437 1343
a 1437 1419
a 1437 1432
a 1437 1422
a 1437 1573
a 1437 1580
a 1437 1420
a 1437 1421
a 1319 1581
a 1319 1321
a 1319 1320
a 1319 1167
a 1581 1319
a 1581 1537
a 1581 1582
a 1581 1320
a 1321 1319
a 1321 1320
a 1321 1167
a 1321 1583
a 1321 1567
a 1321 1518
a 1320 1319
a 1320 1321
a 1320 1167
a 1320 1542
a 1320 1582
a 1320 1584
a 1320 1396
a 1320 1397
a 1320 1581
a 1320 1360
a 1320 1533
a 1320 1585
a 1320 1586
a 1501 1318
a 1501 1420
a 1501 1482
a 1501 1504
a 1417 1312
a 1478 1414
a 1478 1475
a 1478 1411
a 1478 1292
a 1479 1292
a 1479 1480
a 1479 1481
a 1479 1560
a 1479 1561
a 1481 1292
a 1481 1480
a 1481 1479
a 1481 1560
a 1434 1436
a 1434 1343
a 1434 1438
a 1434 1437
a 1434 1587
a 1434 1588
a 1434 1573
a 1434 1572
a 1436 1434
a 1436 1343
a 1436 1437
a 1436 1587
a 1436 1588
a 1436 1573
a 1423 1482
a 1423 1503
a 1423 1425
a 1423 1504
a 1423 1502
a 1423 1312
a 1423 1536
a 1423 1571
a 1423 1589
a 1423 1590
a 1423 1565
a 1556 1521
a 1556 1524
a 1556 1515
a 1556 1591
a 1556 1559
a 1556 1522
a 1505 1403
a 1505 1489
a 1505 1519
a 1505 1518
a 1523 1412
a 1563 1496
a 1563 1592
a 1563 1564
a 1514 1513
a 1514 1414
a 1546 1519
a 1546 1544
a 1546 1545
a 1546 1317
a 1566 1518
a 1566 1567
a 1566 1593
a 1566 1569
a 1566 1526
a 1566 1594
a 1566 1595
a 1566 1596
a 1295 1294
a 1295 1234
a 1295 1296
a 1295 1297
a 1295 1298
a 1295 1322
a 1296 1294
a 1296 1297
a 1296 1234
a 1296 1298
a 1296 1295
a 1296 1475
a 1296 1528
a 1296 1515
a 1296 1522
a 1583 1321
a 1550 1415
a 1550 1597
a 1550 1554
a 1550 1529
a 1550 1322
a 1549 1456
a 1582 1541
a 1582 1593
a 1582 1536
a 1582 1581
a 1582 1571
a 1582 1589
a 1582 1320
a 1541 1582
a 1541 1535
a 1541 1483
a 1541 1593
a 1593 1582
a 1593 1541
a 1593 1536
a 1593 1566
a 1593 1567
a 1536 1582
a 1536 1293
a 1536 1537
a 1536 1598
a 1536 1571
a 1536 1589
a 1536 1593
a 1536 1590
a 1536 1423
a 1422 1419
a 1422 1432
a 1422 1416
a 1422 1420
a 1422 1437
a 1422 1312
a 1421 1419
a 1421 1343
a 1421 1312
a 1421 1561
a 1421 1416
a 1421 1560
a 1421 1580
a 1421 1437
a 1421 1420
a 1560 1479
a 1560 1561
a 1560 1480
a 1560 1481
a 1560 1421
a 1560 1599
a 1560 1600
a 1561 1560
a 1561 1479
a 1561 1480
a 1561 1601
a 1561 1597
a 1561 1421
a 1561 1419
a 1601 1561
a 1597 1561
a 1597 1550
a 1535 1541
a 1535 1483
a 1535 1391
a 1323 1325
a 1323 1324
a 1323 1326
a 1323 1167
a 1325 1323
a 1325 1324
a 1325 1326
a 1325 1503
a 1325 1322
a 1325 1167
a 1325 1602
a 1325 1543
a 1324 1323
a 1324 1325
a 1324 1326
a 1324 1167
a 1324 1503
a 1324 1420
a 1324 1545
a 1324 1603
a 1324 1576
a 1326 1323
a 1326 1324
a 1326 1325
a 1326 1167
a 1297 1298
a 1297 1475
a 1297 1296
a 1297 1295
a 1297 1234
a 1297 1386
a 1297 1528
a 1573 1574
a 1573 1434
a 1573 1436
a 1573 1432
a 1573 1437
a 1420 1501
a 1420 1422
a 1420 1312
a 1420 1324
a 1420 1603
a 1420 1604
a 1420 1491
a 1420 1605
a 1420 1580
a 1420 1437
a 1420 1421
a 1504 1501
a 1504 1423
a 1504 1482
a 1504 1425
a 1504 1491
a 1504 1492
a 1504 1553
a 1504 1606
a 1506 1489
a 1506 1507
a 1507 1506
a 1507 1489
a 1425 1318
a 1425 1423
a 1425 1502
a 1425 1503
a 1425 1482
a 1425 1312
a 1425 1504
a 1537 1536
a 1537 1293
a 1537 1581
a 1598 1536
a 1508 1491
a 1508 1492
a 1508 1489
a 1508 1565
a 1508 1496
a 1524 1521
a 1524 1475
a 1524 1412
a 1524 1556
a 1524 1515
a 1524 1545
a 1524 1294
a 1524 1559
a 1524 1570
a 1503 1423
a 1503 1325
a 1503 1502
a 1503 1322
a 1503 1482
a 1503 1425
a 1503 1607
a 1503 1324
a 1503 1545
a 1503 1554
a 1503 1553
a 1502 1423
a 1502 1503
a 1502 1482
a 1502 1607
a 1502 1425
a 1578 1513
a 1578 1515
a 1607 1502
a 1607 1503
a 1577 1392
a 1592 1563
a 1592 1565
a 1592 1608
a 1592 1555
a 1394 1360
a 1553 1545
a 1553 1322
a 1553 1602
a 1553 1554
a 1553 1503
a 1553 1504
a 1571 1582
a 1571 1536
a 1571 1589
a 1571 1590
a 1571 1423
a 1571 1418
a 1589 1582
a 1589 1536
a 1589 1571
a 1589 1529
a 1589 1423
a 1589 1590
a 1587 1434
a 1587 1436
a 1587 1588
a 1587 1572
a 1588 1587
a 1588 1434
a 1588 1436
a 1572 1587
a 1572 1434
a 1572 1432
a 1572 1609
a 1564 1496
a 1564 1563
a 1564 1608
a 1557 1521
a 1557 1558
a 1558 1557
a 1558 1521
a 1584 1320
a 1602 1325
a 1602 1553
a 1395 1293
a 1395 1360
a 1395 1396
a 1396 1395
a 1396 1320
a 1396 1293
a 1396 1360
a 1396 1397
a 1396 1526
a 1529 1589
a 1529 1550
a 1529 1389
a 1529 1322
a 1529 1530
a 1529 1386
a 1567 1321
a 1567 1518
a 1567 1566
a 1567 1593
a 1554 1550
a 1554 1553
a 1554 1322
a 1554 1599
a 1554 1503
a 1554 1610
a 1397 1320
a 1397 1396
a 1397 1360
a 1603 1420
a 1603 1604
a 1603 1324
a 1604 1420
a 1604 1603
a 1424 1312
a 1530 1389
a 1530 1529
a 1530 1386
a 1555 1492
a 1555 1565
a 1555 1592
a 1565 1555
a 1565 1592
a 1565 1608
a 1565 1496
a 1565 1508
a 1565 1611
a 1565 1612
a 1565 1594
a 1565 1423
a 1565 1613
a 1608 1592
a 1608 1565
a 1608 1564
a 1608 1609
a 1528 1386
a 1528 1297
a 1528 1296
a 1398 1534
a 1398 1360
a 1534 1398
a 1534 1533
a 1534 1389
a 1590 1536
a 1590 1571
a 1590 1423
a 1590 1589
a 1576 1545
a 1576 1324
a 1527 1455
a 1547 1484
a 1569 1566
a 1569 1526
a 1605 1420
a 1599 1560
a 1599 1554
a 1579 1574
a 1570 1294
a 1570 1524
a 1591 1556
a 1611 1612
a 1611 1594
a 1611 1565
a 1612 1611
a 1612 1594
a 1612 1565
a 1594 1611
a 1594 1612
a 1594 1613
a 1594 1566
a 1594 1565
a 1559 1521
a 1559 1524
a 1559 1556
a 1559 1522
a 1600 1560
a 1606 1504
a 1580 1420
a 1580 1421
a 1580 1437
a 1533 1586
a 1533 1320
a 1533 1389
a 1533 1534
a 1586 1533
a 1586 1320
a 1609 1572
a 1609 1608
a 1613 1594
a 1613 1565
a 1595 1566
a 1595 1596
a 1596 1595
a 1596 1566
a 1610 1554
a 1585 1320
