p sp 487 83372
a 1 2
a 1 3
a 1 4
a 1 5
a 1 6
a 1 7
a 1 8
a 1 9
a 1 10
a 1 11
a 1 12
a 1 13
a 1 14
a 1 15
a 1 16
a 1 17
a 1 18
a 1 19
a 1 20
a 1 21
a 1 22
a 1 23
a 1 24
a 1 25
a 1 26
a 1 27
a 1 28
a 1 29
a 1 30
a 1 31
a 1 32
a 1 33
a 1 34
a 1 35
a 1 36
a 1 37
a 1 38
a 1 39
a 1 40
a 1 41
a 1 42
a 1 43
a 1 44
a 1 45
a 1 46
a 1 47
a 1 48
a 1 49
a 1 50
a 1 51
a 1 52
a 1 53
a 1 54
a 1 55
a 1 56
a 1 57
a 1 58
a 1 59
a 1 60
a 1 61
a 1 62
a 1 63
a 1 64
a 1 65
a 1 66
a 1 67
a 1 68
a 1 69
a 1 70
a 1 71
a 1 72
a 1 73
a 1 74
a 1 75
a 1 76
a 1 77
a 1 78
a 1 79
a 1 80
a 1 81
a 1 82
a 1 83
a 1 84
a 1 85
a 1 86
a 1 87
a 1 88
a 1 89
a 1 90
a 1 91
a 1 92
a 1 93
a 1 94
a 1 95
a 1 96
a 1 97
a 1 98
a 1 99
a 2 1
a 2 100
a 2 6
a 2 7
a 2 9
a 2 74
a 2 78
a 2 79
a 2 80
a 2 83
a 2 84
a 2 86
a 2 10
a 2 89
a 2 90
a 2 91
a 2 101
a 2 102
a 2 11
a 2 103
a 2 104
a 2 12
a 2 13
a 2 105
a 2 106
a 2 107
a 2 14
a 2 15
a 2 16
a 2 17
a 2 19
a 2 20
a 2 97
a 2 108
a 2 21
a 2 22
a 2 23
a 2 109
a 2 25
a 2 26
a 2 27
a 2 110
a 2 28
a 2 29
a 2 30
a 2 31
a 2 32
a 2 33
a 2 34
a 2 35
a 2 111
a 2 36
a 2 37
a 2 38
a 2 112
a 2 39
a 2 40
a 2 41
a 2 113
a 2 42
a 2 43
a 2 44
a 2 45
a 2 46
a 2 114
a 2 48
a 2 49
a 2 115
a 2 50
a 2 51
a 2 52
a 2 53
a 2 54
a 2 55
a 2 56
a 2 57
a 2 58
a 2 59
a 2 60
a 2 99
a 2 116
a 2 61
a 2 62
a 2 63
a 2 3
a 2 117
a 2 118
a 2 119
a 2 120
a 2 121
a 2 64
a 2 65
a 2 122
a 2 123
a 2 67
a 2 124
a 2 68
a 2 125
a 2 69
a 2 70
a 2 72
a 2 73
a 2 75
a 2 76
a 2 81
a 2 126
a 2 88
a 2 93
a 2 94
a 2 95
a 2 96
a 2 127
a 2 128
a 2 129
a 2 130
a 100 2
a 100 5
a 100 3
a 100 4
a 100 131
a 100 132
a 100 6
a 100 7
a 100 8
a 100 9
a 100 84
a 100 10
a 100 102
a 100 11
a 100 12
a 100 13
a 100 105
a 100 106
a 100 14
a 100 15
a 100 133
a 100 134
a 100 16
a 100 17
a 100 18
a 100 19
a 100 20
a 100 21
a 100 22
a 100 128
a 100 23
a 100 24
a 100 25
a 100 26
a 100 27
a 100 28
a 100 29
a 100 30
a 100 31
a 100 32
a 100 33
a 100 34
a 100 35
a 100 111
a 100 36
a 100 37
a 100 38
a 100 112
a 100 135
a 100 136
a 100 39
a 100 40
a 100 41
a 100 113
a 100 42
a 100 43
a 100 44
a 100 45
a 100 46
a 100 47
a 100 48
a 100 49
a 100 115
a 100 50
a 100 51
a 100 52
a 100 53
a 100 54
a 100 55
a 100 56
a 100 57
a 100 58
a 100 59
a 100 60
a 100 99
a 100 61
a 100 62
a 100 63
a 100 137
a 100 64
a 100 65
a 100 66
a 100 68
a 100 71
a 100 73
a 100 74
a 100 75
a 100 76
a 100 77
a 100 78
a 100 80
a 100 81
a 100 82
a 100 86
a 100 87
a 100 138
a 100 88
a 100 89
a 100 90
a 100 91
a 100 101
a 100 93
a 100 95
a 100 139
a 100 140
a 100 141
a 100 142
a 100 96
a 100 97
a 100 108
a 100 98
a 100 143
a 100 144
a 6 2
a 6 5
a 6 3
a 6 4
a 6 117
a 6 1
a 6 100
a 6 131
a 6 118
a 6 119
a 6 145
a 6 120
a 6 146
a 6 132
a 6 121
a 6 147
a 6 137
a 6 7
a 6 8
a 6 148
a 6 9
a 6 149
a 6 64
a 6 65
a 6 66
a 6 74
a 6 77
a 6 78
a 6 80
a 6 83
a 6 84
a 6 86
a 6 138
a 6 10
a 6 89
a 6 90
a 6 102
a 6 150
a 6 151
a 6 11
a 6 103
a 6 152
a 6 153
a 6 13
a 6 154
a 6 155
a 6 106
a 6 156
a 6 157
a 6 158
a 6 107
a 6 15
a 6 133
a 6 134
a 6 16
a 6 159
a 6 160
a 6 17
a 6 18
a 6 19
a 6 96
a 6 20
a 6 97
a 6 108
a 6 21
a 6 22
a 6 127
a 6 128
a 6 161
a 6 162
a 6 163
a 6 164
a 6 165
a 6 166
a 6 25
a 6 110
a 6 28
a 6 30
a 6 167
a 6 168
a 6 31
a 6 169
a 6 32
a 6 170
a 6 111
a 6 36
a 6 37
a 6 171
a 6 38
a 6 172
a 6 173
a 6 174
a 6 112
a 6 175
a 6 176
a 6 135
a 6 177
a 6 178
a 6 179
a 6 136
a 6 39
a 6 41
a 6 113
a 6 42
a 6 43
a 6 44
a 6 45
a 6 180
a 6 46
a 6 114
a 6 47
a 6 48
a 6 49
a 6 115
a 6 50
a 6 51
a 6 52
a 6 53
a 6 54
a 6 55
a 6 181
a 6 56
a 6 57
a 6 58
a 6 59
a 6 60
a 6 99
a 6 182
a 6 116
a 6 183
a 6 61
a 6 62
a 6 184
a 6 63
a 6 185
a 6 186
a 6 187
a 6 188
a 6 189
a 6 190
a 6 191
a 6 192
a 6 193
a 6 194
a 6 195
a 6 196
a 6 197
a 6 198
a 6 199
a 6 200
a 6 201
a 6 202
a 6 203
a 6 204
a 6 205
a 6 206
a 6 207
a 6 208
a 6 209
a 6 210
a 6 211
a 6 212
a 6 213
a 6 214
a 6 215
a 6 216
a 6 217
a 6 68
a 6 71
a 6 218
a 6 219
a 6 220
a 6 221
a 6 104
a 6 222
a 6 223
a 6 224
a 6 225
a 6 226
a 6 227
a 6 228
a 6 12
a 6 229
a 6 230
a 6 231
a 6 140
a 6 141
a 6 142
a 6 232
a 6 233
a 6 234
a 6 235
a 6 236
a 6 237
a 6 238
a 6 239
a 6 98
a 6 143
a 6 240
a 6 241
a 6 242
a 6 243
a 6 109
a 6 244
a 6 245
a 6 246
a 6 247
a 6 248
a 6 249
a 6 250
a 6 251
a 6 252
a 6 253
a 6 254
a 6 255
a 6 256
a 6 26
a 6 257
a 6 258
a 6 259
a 6 260
a 6 261
a 6 262
a 6 263
a 6 264
a 6 265
a 6 266
a 6 129
a 6 267
a 6 268
a 6 27
a 6 269
a 6 270
a 6 271
a 6 272
a 6 273
a 6 274
a 6 275
a 6 276
a 6 277
a 6 278
a 6 279
a 6 280
a 6 281
a 6 282
a 6 283
a 6 34
a 6 284
a 6 285
a 6 286
a 6 287
a 6 288
a 6 289
a 6 290
a 6 35
a 6 291
a 6 292
a 6 293
a 6 294
a 6 295
a 6 296
a 6 297
a 6 298
a 6 299
a 6 300
a 6 301
a 6 302
a 6 303
a 6 304
a 6 305
a 6 306
a 6 307
a 6 308
a 6 309
a 6 40
a 6 310
a 6 311
a 6 312
a 6 313
a 7 2
a 7 117
a 7 1
a 7 100
a 7 131
a 7 118
a 7 119
a 7 145
a 7 120
a 7 146
a 7 132
a 7 121
a 7 147
a 7 6
a 7 314
a 7 315
a 7 316
a 7 317
a 7 318
a 7 8
a 7 148
a 7 84
a 7 10
a 7 102
a 7 220
a 7 104
a 7 228
a 7 12
a 7 232
a 7 233
a 7 154
a 7 155
a 7 106
a 7 158
a 7 107
a 7 14
a 7 133
a 7 134
a 7 16
a 7 159
a 7 17
a 7 18
a 7 319
a 7 235
a 7 20
a 7 320
a 7 240
a 7 21
a 7 241
a 7 22
a 7 127
a 7 128
a 7 23
a 7 164
a 7 244
a 7 250
a 7 166
a 7 321
a 7 251
a 7 253
a 7 24
a 7 322
a 7 255
a 7 256
a 7 26
a 7 260
a 7 263
a 7 265
a 7 323
a 7 129
a 7 324
a 7 267
a 7 27
a 7 271
a 7 28
a 7 30
a 7 167
a 7 168
a 7 277
a 7 325
a 7 326
a 7 327
a 7 328
a 7 329
a 7 281
a 7 282
a 7 330
a 7 283
a 7 32
a 7 34
a 7 288
a 7 289
a 7 290
a 7 331
a 7 35
a 7 292
a 7 111
a 7 36
a 7 37
a 7 38
a 7 112
a 7 179
a 7 136
a 7 39
a 7 40
a 7 41
a 7 113
a 7 42
a 7 43
a 7 44
a 7 45
a 7 46
a 7 114
a 7 47
a 7 48
a 7 49
a 7 115
a 7 50
a 7 51
a 7 52
a 7 53
a 7 54
a 7 55
a 7 181
a 7 56
a 7 57
a 7 58
a 7 59
a 7 60
a 7 99
a 7 183
a 7 61
a 7 62
a 7 184
a 7 63
a 7 185
a 7 186
a 7 187
a 7 188
a 7 189
a 7 332
a 7 190
a 7 191
a 7 192
a 7 193
a 7 194
a 7 195
a 7 196
a 7 333
a 7 197
a 7 198
a 7 199
a 7 200
a 7 334
a 7 201
a 7 202
a 7 335
a 7 336
a 7 203
a 7 204
a 7 205
a 7 206
a 7 337
a 7 338
a 7 207
a 7 208
a 7 209
a 7 339
a 7 340
a 7 341
a 7 9
a 7 342
a 7 210
a 7 211
a 7 212
a 7 213
a 7 343
a 7 214
a 7 215
a 7 344
a 7 216
a 7 345
a 7 346
a 7 347
a 7 348
a 7 68
a 7 70
a 7 71
a 7 73
a 7 77
a 7 78
a 7 80
a 7 83
a 7 91
a 7 101
a 7 93
a 7 95
a 7 349
a 7 139
a 7 350
a 7 221
a 7 140
a 7 141
a 7 142
a 7 351
a 7 19
a 7 96
a 7 352
a 7 236
a 7 237
a 7 97
a 7 108
a 7 98
a 7 143
a 7 242
a 7 353
a 7 109
a 7 245
a 7 354
a 7 246
a 7 355
a 7 356
a 7 357
a 7 358
a 7 247
a 7 165
a 7 248
a 7 249
a 7 359
a 7 252
a 7 254
a 7 360
a 7 361
a 7 25
a 7 362
a 7 259
a 7 261
a 7 266
a 7 363
a 7 364
a 7 365
a 7 268
a 7 269
a 7 270
a 7 272
a 7 130
a 7 366
a 7 275
a 7 367
a 7 31
a 7 368
a 7 369
a 7 370
a 7 371
a 7 284
a 7 372
a 7 373
a 7 291
a 7 297
a 7 301
a 7 302
a 7 374
a 7 175
a 7 375
a 7 177
a 7 178
a 7 376
a 9 2
a 9 5
a 9 3
a 9 4
a 9 117
a 9 1
a 9 100
a 9 131
a 9 118
a 9 119
a 9 145
a 9 120
a 9 146
a 9 132
a 9 121
a 9 147
a 9 137
a 9 6
a 9 7
a 9 148
a 9 10
a 9 102
a 9 377
a 9 378
a 9 104
a 9 379
a 9 223
a 9 225
a 9 226
a 9 380
a 9 381
a 9 12
a 9 233
a 9 154
a 9 16
a 9 96
a 9 240
a 9 21
a 9 241
a 9 242
a 9 22
a 9 128
a 9 244
a 9 245
a 9 247
a 9 248
a 9 249
a 9 250
a 9 359
a 9 252
a 9 24
a 9 254
a 9 255
a 9 25
a 9 263
a 9 265
a 9 267
a 9 268
a 9 27
a 9 269
a 9 270
a 9 28
a 9 273
a 9 30
a 9 275
a 9 277
a 9 281
a 9 288
a 9 291
a 9 292
a 9 171
a 9 38
a 9 39
a 9 309
a 9 41
a 9 42
a 9 43
a 9 44
a 9 46
a 9 114
a 9 48
a 9 49
a 9 115
a 9 50
a 9 51
a 9 53
a 9 54
a 9 56
a 9 57
a 9 58
a 9 59
a 9 60
a 9 99
a 9 61
a 9 62
a 9 63
a 9 64
a 9 68
a 9 71
a 9 221
a 74 2
a 74 3
a 74 4
a 74 137
a 74 6
a 74 64
a 74 65
a 74 382
a 74 67
a 74 68
a 74 125
a 74 69
a 74 70
a 74 71
a 74 72
a 74 383
a 74 73
a 74 5
a 74 117
a 74 1
a 74 100
a 74 119
a 74 145
a 74 120
a 74 132
a 74 121
a 74 147
a 74 318
a 74 8
a 74 148
a 74 66
a 74 75
a 74 78
a 74 79
a 74 80
a 74 81
a 74 83
a 74 84
a 74 85
a 74 86
a 74 10
a 74 88
a 74 89
a 74 90
a 74 91
a 74 101
a 74 93
a 74 102
a 74 103
a 74 152
a 74 105
a 74 232
a 74 233
a 74 154
a 74 155
a 74 106
a 74 107
a 74 134
a 74 16
a 74 17
a 74 18
a 74 20
a 74 97
a 74 108
a 74 98
a 74 21
a 74 22
a 74 128
a 74 23
a 74 164
a 74 109
a 74 253
a 74 129
a 74 130
a 74 367
a 74 384
a 74 32
a 74 34
a 74 35
a 74 111
a 74 38
a 74 307
a 74 112
a 74 135
a 74 41
a 74 113
a 74 42
a 74 43
a 74 44
a 74 46
a 74 114
a 74 47
a 74 48
a 74 49
a 74 115
a 74 50
a 74 51
a 74 52
a 74 53
a 74 54
a 74 55
a 74 181
a 74 56
a 74 57
a 74 58
a 74 59
a 74 60
a 74 99
a 74 183
a 74 61
a 74 62
a 74 184
a 74 63
a 74 185
a 74 76
a 74 77
a 74 82
a 74 126
a 74 92
a 74 94
a 74 95
a 74 19
a 74 236
a 74 237
a 74 320
a 74 256
a 74 31
a 74 169
a 74 277
a 74 182
a 74 312
a 74 116
a 74 385
a 74 313
a 78 2
a 78 5
a 78 3
a 78 4
a 78 137
a 78 6
a 78 64
a 78 66
a 78 68
a 78 73
a 78 74
a 78 75
a 78 76
a 78 77
a 78 117
a 78 1
a 78 100
a 78 119
a 78 145
a 78 120
a 78 132
a 78 121
a 78 318
a 78 7
a 78 8
a 78 148
a 78 67
a 78 125
a 78 70
a 78 79
a 78 80
a 78 83
a 78 84
a 78 86
a 78 87
a 78 10
a 78 88
a 78 89
a 78 90
a 78 91
a 78 101
a 78 93
a 78 95
a 78 102
a 78 103
a 78 386
a 78 152
a 78 105
a 78 232
a 78 154
a 78 155
a 78 106
a 78 107
a 78 14
a 78 133
a 78 134
a 78 16
a 78 159
a 78 17
a 78 18
a 78 19
a 78 319
a 78 20
a 78 97
a 78 108
a 78 98
a 78 21
a 78 22
a 78 128
a 78 23
a 78 164
a 78 109
a 78 253
a 78 255
a 78 129
a 78 324
a 78 275
a 78 367
a 78 384
a 78 32
a 78 34
a 78 35
a 78 111
a 78 36
a 78 37
a 78 38
a 78 112
a 78 179
a 78 136
a 78 41
a 78 113
a 78 42
a 78 43
a 78 44
a 78 45
a 78 46
a 78 114
a 78 47
a 78 48
a 78 49
a 78 115
a 78 50
a 78 51
a 78 52
a 78 53
a 78 54
a 78 55
a 78 181
a 78 56
a 78 57
a 78 58
a 78 59
a 78 60
a 78 99
a 78 183
a 78 61
a 78 62
a 78 184
a 78 63
a 78 185
a 78 387
a 78 143
a 78 31
a 78 144
a 79 2
a 79 3
a 79 4
a 79 65
a 79 68
a 79 125
a 79 69
a 79 70
a 79 72
a 79 73
a 79 74
a 79 75
a 79 76
a 79 77
a 79 78
a 79 1
a 79 148
a 79 67
a 79 83
a 79 10
a 79 93
a 79 102
a 79 152
a 79 155
a 79 107
a 79 134
a 79 16
a 79 108
a 79 98
a 79 21
a 79 22
a 79 128
a 79 23
a 79 109
a 79 253
a 79 25
a 79 129
a 79 384
a 79 32
a 79 34
a 79 307
a 79 41
a 79 113
a 79 42
a 79 43
a 79 44
a 79 46
a 79 114
a 79 47
a 79 48
a 79 49
a 79 50
a 79 51
a 79 52
a 79 53
a 79 54
a 79 55
a 79 181
a 79 56
a 79 57
a 79 58
a 79 59
a 79 60
a 79 99
a 79 61
a 79 62
a 79 63
a 79 185
a 79 81
a 79 82
a 79 86
a 79 88
a 79 95
a 79 17
a 79 312
a 79 116
a 79 313
a 80 2
a 80 3
a 80 4
a 80 137
a 80 6
a 80 8
a 80 64
a 80 65
a 80 123
a 80 67
a 80 124
a 80 68
a 80 125
a 80 69
a 80 70
a 80 71
a 80 72
a 80 73
a 80 74
a 80 75
a 80 76
a 80 77
a 80 78
a 80 1
a 80 100
a 80 132
a 80 121
a 80 316
a 80 318
a 80 7
a 80 148
a 80 83
a 80 84
a 80 10
a 80 91
a 80 101
a 80 102
a 80 152
a 80 105
a 80 154
a 80 155
a 80 106
a 80 107
a 80 134
a 80 16
a 80 17
a 80 319
a 80 20
a 80 236
a 80 108
a 80 98
a 80 320
a 80 21
a 80 22
a 80 128
a 80 23
a 80 164
a 80 253
a 80 25
a 80 324
a 80 384
a 80 32
a 80 34
a 80 35
a 80 111
a 80 38
a 80 307
a 80 135
a 80 41
a 80 113
a 80 42
a 80 43
a 80 44
a 80 46
a 80 114
a 80 47
a 80 48
a 80 49
a 80 115
a 80 50
a 80 51
a 80 52
a 80 53
a 80 54
a 80 55
a 80 181
a 80 56
a 80 57
a 80 58
a 80 59
a 80 60
a 80 99
a 80 61
a 80 62
a 80 184
a 80 63
a 80 185
a 80 81
a 80 82
a 80 85
a 80 387
a 80 86
a 80 138
a 80 126
a 80 88
a 80 89
a 80 90
a 80 92
a 80 93
a 80 94
a 80 95
a 80 150
a 80 388
a 80 389
a 80 151
a 80 218
a 80 390
a 80 377
a 80 139
a 80 219
a 80 350
a 80 391
a 80 221
a 80 12
a 80 140
a 80 141
a 80 142
a 80 233
a 80 158
a 80 18
a 80 19
a 80 96
a 80 235
a 80 237
a 80 239
a 80 97
a 80 143
a 80 240
a 80 127
a 80 392
a 80 251
a 80 254
a 80 256
a 80 266
a 80 323
a 80 363
a 80 367
a 80 284
a 80 170
a 80 393
a 80 297
a 80 144
a 80 394
a 80 112
a 80 40
a 80 312
a 80 116
a 80 385
a 80 313
a 83 2
a 83 3
a 83 4
a 83 137
a 83 6
a 83 64
a 83 65
a 83 382
a 83 122
a 83 123
a 83 67
a 83 124
a 83 68
a 83 125
a 83 69
a 83 70
a 83 71
a 83 72
a 83 383
a 83 73
a 83 74
a 83 75
a 83 76
a 83 77
a 83 78
a 83 79
a 83 80
a 83 81
a 83 82
a 83 1
a 83 120
a 83 146
a 83 318
a 83 7
a 83 148
a 83 84
a 83 87
a 83 138
a 83 10
a 83 126
a 83 88
a 83 90
a 83 91
a 83 93
a 83 95
a 83 102
a 83 220
a 83 386
a 83 105
a 83 232
a 83 155
a 83 106
a 83 107
a 83 14
a 83 133
a 83 134
a 83 16
a 83 17
a 83 18
a 83 20
a 83 97
a 83 108
a 83 98
a 83 21
a 83 22
a 83 128
a 83 23
a 83 164
a 83 109
a 83 166
a 83 253
a 83 255
a 83 25
a 83 129
a 83 324
a 83 130
a 83 275
a 83 384
a 83 281
a 83 32
a 83 34
a 83 35
a 83 111
a 83 38
a 83 112
a 83 136
a 83 41
a 83 113
a 83 42
a 83 43
a 83 44
a 83 46
a 83 114
a 83 47
a 83 48
a 83 49
a 83 115
a 83 50
a 83 51
a 83 52
a 83 53
a 83 54
a 83 55
a 83 181
a 83 56
a 83 57
a 83 58
a 83 59
a 83 60
a 83 99
a 83 183
a 83 61
a 83 62
a 83 184
a 83 63
a 83 185
a 83 85
a 83 387
a 83 86
a 83 89
a 83 92
a 83 94
a 83 12
a 83 233
a 83 19
a 83 96
a 83 236
a 83 237
a 83 143
a 83 254
a 83 393
a 83 144
a 83 182
a 83 312
a 83 116
a 83 385
a 83 313
a 84 2
a 84 3
a 84 100
a 84 137
a 84 6
a 84 318
a 84 317
a 84 7
a 84 186
a 84 187
a 84 188
a 84 189
a 84 332
a 84 190
a 84 193
a 84 194
a 84 196
a 84 197
a 84 198
a 84 199
a 84 200
a 84 201
a 84 202
a 84 203
a 84 205
a 84 207
a 84 208
a 84 340
a 84 148
a 84 341
a 84 395
a 84 342
a 84 212
a 84 213
a 84 214
a 84 215
a 84 344
a 84 216
a 84 345
a 84 217
a 84 346
a 84 149
a 84 347
a 84 348
a 84 64
a 84 65
a 84 66
a 84 124
a 84 68
a 84 69
a 84 70
a 84 72
a 84 73
a 84 74
a 84 75
a 84 76
a 84 78
a 84 80
a 84 81
a 84 82
a 84 83
a 84 4
a 84 1
a 84 119
a 84 145
a 84 120
a 84 132
a 84 121
a 84 147
a 84 382
a 84 122
a 84 67
a 84 71
a 84 85
a 84 387
a 84 87
a 84 10
a 84 126
a 84 88
a 84 90
a 84 91
a 84 93
a 84 94
a 84 95
a 84 102
a 84 220
a 84 386
a 84 105
a 84 232
a 84 154
a 84 155
a 84 106
a 84 158
a 84 107
a 84 14
a 84 133
a 84 134
a 84 16
a 84 159
a 84 17
a 84 20
a 84 108
a 84 98
a 84 320
a 84 21
a 84 22
a 84 128
a 84 23
a 84 164
a 84 109
a 84 253
a 84 255
a 84 25
a 84 129
a 84 324
a 84 130
a 84 275
a 84 367
a 84 384
a 84 32
a 84 34
a 84 35
a 84 111
a 84 38
a 84 307
a 84 112
a 84 135
a 84 179
a 84 136
a 84 41
a 84 113
a 84 42
a 84 43
a 84 44
a 84 45
a 84 46
a 84 114
a 84 47
a 84 48
a 84 49
a 84 115
a 84 50
a 84 51
a 84 52
a 84 53
a 84 54
a 84 55
a 84 181
a 84 56
a 84 57
a 84 58
a 84 59
a 84 60
a 84 99
a 84 183
a 84 61
a 84 396
a 84 62
a 84 184
a 84 63
a 84 185
a 84 86
a 84 92
a 84 151
a 84 397
a 84 218
a 84 377
a 84 378
a 84 219
a 84 350
a 84 221
a 84 104
a 84 223
a 84 224
a 84 225
a 84 227
a 84 12
a 84 229
a 84 230
a 84 398
a 84 231
a 84 399
a 84 400
a 84 401
a 84 402
a 84 141
a 84 142
a 84 234
a 84 15
a 84 403
a 84 404
a 84 405
a 84 18
a 84 19
a 84 96
a 84 235
a 84 352
a 84 236
a 84 237
a 84 239
a 84 97
a 84 143
a 84 240
a 84 353
a 84 127
a 84 243
a 84 244
a 84 245
a 84 248
a 84 249
a 84 250
a 84 251
a 84 252
a 84 254
a 84 256
a 84 26
a 84 257
a 84 263
a 84 264
a 84 406
a 84 265
a 84 266
a 84 323
a 84 407
a 84 267
a 84 268
a 84 27
a 84 269
a 84 408
a 84 270
a 84 271
a 84 272
a 84 110
a 84 28
a 84 273
a 84 274
a 84 366
a 84 30
a 84 167
a 84 276
a 84 168
a 84 31
a 84 169
a 84 277
a 84 325
a 84 409
a 84 410
a 84 326
a 84 327
a 84 328
a 84 278
a 84 368
a 84 279
a 84 329
a 84 369
a 84 411
a 84 412
a 84 413
a 84 414
a 84 370
a 84 280
a 84 281
a 84 282
a 84 330
a 84 283
a 84 415
a 84 33
a 84 284
a 84 416
a 84 417
a 84 418
a 84 170
a 84 285
a 84 372
a 84 286
a 84 287
a 84 288
a 84 289
a 84 290
a 84 331
a 84 419
a 84 373
a 84 420
a 84 421
a 84 422
a 84 423
a 84 291
a 84 292
a 84 424
a 84 293
a 84 294
a 84 295
a 84 296
a 84 297
a 84 36
a 84 425
a 84 37
a 84 171
a 84 426
a 84 299
a 84 300
a 84 172
a 84 301
a 84 302
a 84 303
a 84 304
a 84 305
a 84 306
a 84 427
a 84 144
a 84 394
a 84 374
a 84 174
a 84 428
a 84 429
a 84 175
a 84 176
a 84 430
a 84 431
a 84 308
a 84 432
a 84 39
a 84 433
a 84 40
a 84 180
a 84 434
a 84 435
a 84 311
a 84 182
a 84 312
a 84 116
a 84 385
a 84 313
a 84 436
a 86 2
a 86 3
a 86 4
a 86 137
a 86 6
a 86 64
a 86 68
a 86 74
a 86 77
a 86 78
a 86 1
a 86 100
a 86 132
a 86 318
a 86 148
a 86 79
a 86 80
a 86 83
a 86 84
a 86 87
a 86 138
a 86 10
a 86 88
a 86 90
a 86 95
a 86 102
a 86 386
a 86 105
a 86 232
a 86 154
a 86 106
a 86 158
a 86 107
a 86 14
a 86 133
a 86 134
a 86 16
a 86 159
a 86 17
a 86 319
a 86 20
a 86 108
a 86 98
a 86 21
a 86 22
a 86 128
a 86 23
a 86 164
a 86 109
a 86 253
a 86 255
a 86 25
a 86 129
a 86 130
a 86 275
a 86 384
a 86 281
a 86 32
a 86 34
a 86 35
a 86 111
a 86 36
a 86 38
a 86 112
a 86 135
a 86 179
a 86 136
a 86 41
a 86 113
a 86 42
a 86 43
a 86 44
a 86 45
a 86 46
a 86 114
a 86 47
a 86 48
a 86 49
a 86 115
a 86 50
a 86 51
a 86 52
a 86 53
a 86 54
a 86 55
a 86 181
a 86 56
a 86 57
a 86 58
a 86 59
a 86 60
a 86 99
a 86 183
a 86 61
a 86 62
a 86 184
a 86 63
a 86 185
a 10 2
a 10 5
a 10 3
a 10 4
a 10 117
a 10 1
a 10 100
a 10 118
a 10 119
a 10 120
a 10 121
a 10 147
a 10 137
a 10 6
a 10 314
a 10 315
a 10 316
a 10 318
a 10 317
a 10 7
a 10 8
a 10 186
a 10 187
a 10 188
a 10 189
a 10 332
a 10 190
a 10 191
a 10 193
a 10 194
a 10 195
a 10 196
a 10 333
a 10 197
a 10 198
a 10 199
a 10 200
a 10 201
a 10 202
a 10 336
a 10 203
a 10 204
a 10 205
a 10 206
a 10 337
a 10 338
a 10 437
a 10 207
a 10 208
a 10 209
a 10 340
a 10 148
a 10 341
a 10 9
a 10 395
a 10 342
a 10 438
a 10 210
a 10 212
a 10 213
a 10 343
a 10 214
a 10 215
a 10 344
a 10 216
a 10 345
a 10 217
a 10 346
a 10 439
a 10 149
a 10 347
a 10 348
a 10 64
a 10 65
a 10 66
a 10 382
a 10 123
a 10 67
a 10 124
a 10 68
a 10 125
a 10 69
a 10 70
a 10 71
a 10 72
a 10 383
a 10 73
a 10 74
a 10 75
a 10 76
a 10 77
a 10 78
a 10 79
a 10 80
a 10 81
a 10 82
a 10 83
a 10 84
a 10 85
a 10 387
a 10 86
a 10 87
a 10 138
a 10 89
a 10 90
a 10 101
a 10 102
a 10 228
a 10 12
a 10 13
a 10 232
a 10 154
a 10 106
a 10 107
a 10 133
a 10 134
a 10 16
a 10 17
a 10 97
a 10 108
a 10 98
a 10 21
a 10 22
a 10 128
a 10 23
a 10 164
a 10 109
a 10 253
a 10 25
a 10 130
a 10 275
a 10 367
a 10 384
a 10 281
a 10 282
a 10 32
a 10 34
a 10 35
a 10 38
a 10 172
a 10 112
a 10 136
a 10 41
a 10 113
a 10 42
a 10 43
a 10 44
a 10 46
a 10 114
a 10 47
a 10 48
a 10 49
a 10 115
a 10 50
a 10 51
a 10 52
a 10 53
a 10 54
a 10 55
a 10 181
a 10 56
a 10 57
a 10 58
a 10 59
a 10 60
a 10 99
a 10 183
a 10 61
a 10 62
a 10 184
a 10 63
a 10 185
a 10 126
a 10 88
a 10 92
a 10 93
a 10 440
a 10 94
a 10 95
a 10 150
a 10 388
a 10 389
a 10 151
a 10 397
a 10 218
a 10 390
a 10 377
a 10 441
a 10 349
a 10 378
a 10 442
a 10 11
a 10 139
a 10 103
a 10 443
a 10 444
a 10 219
a 10 220
a 10 386
a 10 350
a 10 152
a 10 153
a 10 445
a 10 446
a 10 391
a 10 221
a 10 104
a 10 222
a 10 379
a 10 223
a 10 224
a 10 225
a 10 226
a 10 227
a 10 380
a 10 381
a 10 229
a 10 447
a 10 448
a 10 230
a 10 398
a 10 231
a 10 449
a 10 399
a 10 400
a 10 401
a 10 402
a 10 450
a 10 451
a 10 140
a 10 141
a 10 142
a 10 105
a 10 233
a 10 155
a 10 156
a 10 157
a 10 158
a 10 234
a 10 14
a 10 15
a 10 403
a 10 159
a 10 404
a 10 160
a 10 405
a 10 452
a 10 453
a 10 454
a 10 18
a 10 19
a 10 319
a 10 96
a 10 235
a 10 352
a 10 455
a 10 20
a 10 236
a 10 237
a 10 238
a 10 239
a 10 320
a 10 143
a 10 240
a 10 241
a 10 242
a 10 353
a 10 127
a 10 392
a 10 456
a 10 243
a 10 457
a 10 458
a 10 161
a 10 459
a 10 162
a 10 163
a 10 244
a 10 245
a 10 354
a 10 246
a 10 355
a 10 356
a 10 357
a 10 358
a 10 247
a 10 165
a 10 248
a 10 249
a 10 250
a 10 166
a 10 359
a 10 321
a 10 251
a 10 252
a 10 24
a 10 254
a 10 360
a 10 322
a 10 255
a 10 361
a 10 256
a 10 26
a 10 460
a 10 362
a 10 257
a 10 259
a 10 260
a 10 261
a 10 263
a 10 264
a 10 406
a 10 265
a 10 266
a 10 323
a 10 363
a 10 461
a 10 129
a 10 324
a 10 364
a 10 365
a 10 407
a 10 267
a 10 268
a 10 27
a 10 269
a 10 408
a 10 462
a 10 270
a 10 271
a 10 272
a 10 110
a 10 463
a 10 28
a 10 29
a 10 273
a 10 274
a 10 366
a 10 30
a 10 464
a 10 167
a 10 276
a 10 168
a 10 31
a 10 169
a 10 277
a 10 325
a 10 409
a 10 410
a 10 326
a 10 327
a 10 328
a 10 278
a 10 368
a 10 279
a 10 329
a 10 369
a 10 411
a 10 412
a 10 413
a 10 414
a 10 370
a 10 280
a 10 330
a 10 371
a 10 283
a 10 415
a 10 33
a 10 284
a 10 416
a 10 417
a 10 418
a 10 170
a 10 393
a 10 465
a 10 285
a 10 466
a 10 372
a 10 286
a 10 287
a 10 288
a 10 289
a 10 290
a 10 331
a 10 467
a 10 419
a 10 373
a 10 420
a 10 421
a 10 422
a 10 468
a 10 469
a 10 423
a 10 291
a 10 292
a 10 111
a 10 424
a 10 293
a 10 294
a 10 295
a 10 296
a 10 297
a 10 36
a 10 470
a 10 425
a 10 37
a 10 171
a 10 298
a 10 426
a 10 299
a 10 300
a 10 301
a 10 302
a 10 303
a 10 304
a 10 471
a 10 472
a 10 305
a 10 173
a 10 306
a 10 307
a 10 427
a 10 144
a 10 394
a 10 374
a 10 174
a 10 428
a 10 429
a 10 175
a 10 375
a 10 176
a 10 430
a 10 431
a 10 308
a 10 473
a 10 135
a 10 177
a 10 178
a 10 179
a 10 474
a 10 475
a 10 432
a 10 39
a 10 376
a 10 433
a 10 309
a 10 40
a 10 45
a 10 180
a 10 434
a 10 435
a 10 311
a 10 182
a 10 312
a 10 116
a 10 396
a 10 385
a 10 313
a 10 476
a 10 436
a 89 2
a 89 5
a 89 3
a 89 4
a 89 6
a 89 64
a 89 124
a 89 68
a 89 70
a 89 72
a 89 74
a 89 77
a 89 78
a 89 85
a 89 10
a 89 88
a 89 117
a 89 1
a 89 100
a 89 132
a 89 121
a 89 148
a 89 67
a 89 80
a 89 83
a 89 90
a 89 91
a 89 101
a 89 93
a 89 107
a 89 134
a 89 16
a 89 17
a 89 97
a 89 108
a 89 98
a 89 320
a 89 21
a 89 22
a 89 128
a 89 23
a 89 109
a 89 253
a 89 129
a 89 324
a 89 130
a 89 367
a 89 384
a 89 282
a 89 34
a 89 41
a 89 113
a 89 42
a 89 43
a 89 44
a 89 46
a 89 114
a 89 47
a 89 48
a 89 49
a 89 115
a 89 50
a 89 52
a 89 53
a 89 54
a 89 55
a 89 181
a 89 56
a 89 57
a 89 58
a 89 59
a 89 60
a 89 61
a 89 62
a 89 63
a 89 185
a 89 95
a 89 441
a 89 349
a 89 139
a 89 103
a 89 350
a 89 446
a 89 104
a 89 229
a 89 230
a 89 398
a 89 231
a 89 400
a 89 451
a 89 140
a 89 141
a 89 142
a 89 20
a 89 143
a 89 242
a 89 127
a 89 252
a 89 292
a 89 38
a 89 144
a 89 394
a 90 2
a 90 5
a 90 3
a 90 4
a 90 137
a 90 6
a 90 64
a 90 65
a 90 66
a 90 68
a 90 125
a 90 69
a 90 70
a 90 71
a 90 72
a 90 73
a 90 74
a 90 75
a 90 76
a 90 77
a 90 78
a 90 81
a 90 82
a 90 83
a 90 84
a 90 85
a 90 387
a 90 86
a 90 10
a 90 126
a 90 88
a 90 89
a 90 117
a 90 1
a 90 100
a 90 132
a 90 121
a 90 318
a 90 148
a 90 80
a 90 91
a 90 101
a 90 93
a 90 102
a 90 386
a 90 155
a 90 107
a 90 134
a 90 16
a 90 17
a 90 236
a 90 108
a 90 98
a 90 320
a 90 21
a 90 22
a 90 128
a 90 23
a 90 164
a 90 109
a 90 253
a 90 255
a 90 25
a 90 129
a 90 324
a 90 130
a 90 367
a 90 384
a 90 281
a 90 282
a 90 34
a 90 38
a 90 41
a 90 113
a 90 42
a 90 43
a 90 44
a 90 46
a 90 114
a 90 47
a 90 48
a 90 49
a 90 115
a 90 50
a 90 51
a 90 52
a 90 53
a 90 54
a 90 55
a 90 181
a 90 56
a 90 57
a 90 58
a 90 59
a 90 60
a 90 99
a 90 183
a 90 61
a 90 62
a 90 184
a 90 63
a 90 185
a 90 92
a 90 94
a 90 95
a 90 218
a 90 378
a 90 139
a 90 18
a 90 19
a 90 96
a 90 352
a 90 20
a 90 237
a 90 238
a 90 239
a 90 97
a 90 143
a 90 240
a 90 242
a 90 252
a 90 322
a 90 31
a 91 2
a 91 5
a 91 3
a 91 4
a 91 64
a 91 124
a 91 68
a 91 69
a 91 70
a 91 72
a 91 73
a 91 74
a 91 77
a 91 78
a 91 80
a 91 81
a 91 83
a 91 84
a 91 85
a 91 88
a 91 89
a 91 90
a 91 117
a 91 1
a 91 100
a 91 119
a 91 145
a 91 120
a 91 132
a 91 121
a 91 137
a 91 318
a 91 7
a 91 148
a 91 66
a 91 67
a 91 101
a 91 93
a 91 95
a 91 154
a 91 107
a 91 134
a 91 17
a 91 18
a 91 320
a 91 21
a 91 128
a 91 23
a 91 109
a 91 253
a 91 129
a 91 324
a 91 130
a 91 367
a 91 384
a 91 281
a 91 282
a 91 32
a 91 41
a 91 113
a 91 42
a 91 43
a 91 44
a 91 46
a 91 114
a 91 47
a 91 48
a 91 49
a 91 50
a 91 52
a 91 53
a 91 54
a 91 55
a 91 181
a 91 56
a 91 57
a 91 58
a 91 59
a 91 184
a 91 63
a 91 185
a 91 92
a 91 19
a 91 96
a 91 352
a 91 20
a 91 236
a 91 237
a 91 239
a 91 97
a 91 108
a 91 98
a 91 143
a 91 240
a 91 242
a 91 252
a 91 112
a 91 39
a 91 376
a 101 2
a 101 5
a 101 3
a 101 348
a 101 64
a 101 65
a 101 66
a 101 68
a 101 125
a 101 70
a 101 383
a 101 73
a 101 74
a 101 75
a 101 76
a 101 77
a 101 78
a 101 80
a 101 10
a 101 88
a 101 89
a 101 90
a 101 91
a 101 100
a 101 132
a 101 121
a 101 137
a 101 316
a 101 318
a 101 7
a 101 148
a 101 382
a 101 67
a 101 93
a 101 95
a 101 102
a 101 152
a 101 155
a 101 106
a 101 107
a 101 134
a 101 16
a 101 17
a 101 319
a 101 20
a 101 236
a 101 237
a 101 108
a 101 98
a 101 320
a 101 143
a 101 21
a 101 22
a 101 128
a 101 164
a 101 109
a 101 255
a 101 25
a 101 129
a 101 324
a 101 275
a 101 367
a 101 384
a 101 34
a 101 38
a 101 41
a 101 113
a 101 42
a 101 43
a 101 44
a 101 46
a 101 114
a 101 47
a 101 48
a 101 49
a 101 115
a 101 50
a 101 51
a 101 52
a 101 53
a 101 54
a 101 55
a 101 181
a 101 56
a 101 57
a 101 58
a 101 59
a 101 60
a 101 99
a 101 61
a 101 62
a 101 63
a 101 185
a 101 92
a 101 350
a 101 18
a 101 19
a 101 96
a 101 352
a 101 97
a 101 240
a 101 249
a 101 251
a 101 253
a 101 360
a 101 259
a 101 31
a 101 326
a 101 370
a 101 32
a 101 372
a 101 144
a 101 394
a 101 112
a 101 177
a 101 39
a 101 40
a 102 2
a 102 5
a 102 3
a 102 100
a 102 121
a 102 137
a 102 6
a 102 314
a 102 315
a 102 318
a 102 317
a 102 7
a 102 8
a 102 186
a 102 187
a 102 188
a 102 189
a 102 332
a 102 190
a 102 191
a 102 193
a 102 194
a 102 195
a 102 196
a 102 197
a 102 198
a 102 199
a 102 200
a 102 201
a 102 202
a 102 203
a 102 205
a 102 207
a 102 208
a 102 209
a 102 340
a 102 148
a 102 341
a 102 9
a 102 395
a 102 342
a 102 210
a 102 212
a 102 213
a 102 343
a 102 214
a 102 215
a 102 344
a 102 216
a 102 345
a 102 217
a 102 346
a 102 149
a 102 347
a 102 348
a 102 64
a 102 65
a 102 66
a 102 124
a 102 68
a 102 69
a 102 70
a 102 72
a 102 383
a 102 73
a 102 74
a 102 75
a 102 76
a 102 78
a 102 79
a 102 80
a 102 81
a 102 82
a 102 83
a 102 84
a 102 86
a 102 138
a 102 10
a 102 126
a 102 88
a 102 90
a 102 101
a 102 92
a 102 93
a 102 95
a 102 389
a 102 386
a 102 141
a 102 105
a 102 232
a 102 106
a 102 107
a 102 14
a 102 133
a 102 134
a 102 16
a 102 17
a 102 108
a 102 21
a 102 22
a 102 128
a 102 164
a 102 253
a 102 25
a 102 460
a 102 367
a 102 279
a 102 281
a 102 32
a 102 34
a 102 111
a 102 38
a 102 172
a 102 112
a 102 135
a 102 136
a 102 41
a 102 113
a 102 42
a 102 43
a 102 44
a 102 46
a 102 114
a 102 47
a 102 48
a 102 49
a 102 115
a 102 50
a 102 51
a 102 52
a 102 53
a 102 54
a 102 55
a 102 181
a 102 56
a 102 57
a 102 58
a 102 59
a 102 60
a 102 311
a 102 99
a 102 183
a 102 61
a 102 62
a 102 184
a 102 63
a 102 185
a 102 150
a 102 151
a 102 397
a 102 218
a 102 377
a 102 378
a 102 443
a 102 219
a 102 220
a 102 350
a 102 446
a 102 391
a 102 221
a 102 104
a 102 222
a 102 223
a 102 224
a 102 225
a 102 226
a 102 227
a 102 12
a 102 13
a 102 229
a 102 448
a 102 230
a 102 398
a 102 231
a 102 399
a 102 400
a 102 401
a 102 402
a 102 450
a 102 451
a 102 140
a 102 142
a 102 233
a 102 154
a 102 155
a 102 157
a 102 158
a 102 234
a 102 15
a 102 403
a 102 159
a 102 404
a 102 160
a 102 405
a 102 18
a 102 19
a 102 96
a 102 235
a 102 352
a 102 20
a 102 236
a 102 237
a 102 238
a 102 239
a 102 97
a 102 98
a 102 320
a 102 143
a 102 240
a 102 241
a 102 242
a 102 353
a 102 127
a 102 23
a 102 392
a 102 243
a 102 161
a 102 459
a 102 162
a 102 109
a 102 244
a 102 245
a 102 246
a 102 247
a 102 248
a 102 249
a 102 250
a 102 321
a 102 251
a 102 252
a 102 24
a 102 254
a 102 360
a 102 255
a 102 256
a 102 26
a 102 257
a 102 260
a 102 263
a 102 264
a 102 406
a 102 265
a 102 266
a 102 323
a 102 363
a 102 129
a 102 365
a 102 407
a 102 267
a 102 268
a 102 27
a 102 269
a 102 408
a 102 462
a 102 270
a 102 271
a 102 272
a 102 110
a 102 28
a 102 273
a 102 274
a 102 366
a 102 30
a 102 275
a 102 167
a 102 276
a 102 168
a 102 31
a 102 169
a 102 277
a 102 325
a 102 409
a 102 410
a 102 326
a 102 327
a 102 328
a 102 278
a 102 368
a 102 329
a 102 369
a 102 411
a 102 384
a 102 412
a 102 413
a 102 414
a 102 370
a 102 280
a 102 282
a 102 330
a 102 283
a 102 415
a 102 33
a 102 284
a 102 416
a 102 417
a 102 418
a 102 170
a 102 393
a 102 285
a 102 466
a 102 372
a 102 286
a 102 287
a 102 288
a 102 289
a 102 290
a 102 331
a 102 467
a 102 419
a 102 373
a 102 420
a 102 421
a 102 422
a 102 468
a 102 423
a 102 35
a 102 291
a 102 292
a 102 424
a 102 293
a 102 294
a 102 295
a 102 296
a 102 297
a 102 36
a 102 470
a 102 425
a 102 37
a 102 171
a 102 426
a 102 299
a 102 300
a 102 301
a 102 302
a 102 303
a 102 304
a 102 471
a 102 305
a 102 173
a 102 306
a 102 307
a 102 427
a 102 144
a 102 394
a 102 374
a 102 174
a 102 428
a 102 429
a 102 175
a 102 176
a 102 430
a 102 431
a 102 308
a 102 177
a 102 178
a 102 179
a 102 432
a 102 39
a 102 433
a 102 40
a 102 45
a 102 180
a 102 434
a 102 435
a 102 182
a 102 312
a 102 116
a 102 436
a 11 2
a 11 5
a 11 3
a 11 1
a 11 100
a 11 119
a 11 120
a 11 121
a 11 147
a 11 137
a 11 6
a 11 186
a 11 187
a 11 188
a 11 189
a 11 332
a 11 190
a 11 192
a 11 193
a 11 194
a 11 196
a 11 197
a 11 198
a 11 199
a 11 200
a 11 201
a 11 202
a 11 203
a 11 205
a 11 337
a 11 209
a 11 340
a 11 148
a 11 342
a 11 213
a 11 215
a 11 344
a 11 64
a 11 68
a 11 151
a 11 378
a 11 117
a 11 10
a 11 218
a 11 477
a 11 103
a 11 104
a 11 12
a 11 107
a 11 16
a 11 17
a 11 236
a 11 239
a 11 21
a 11 127
a 11 128
a 11 252
a 11 253
a 11 255
a 11 25
a 11 271
a 11 167
a 11 412
a 11 34
a 11 135
a 11 40
a 11 41
a 11 113
a 11 42
a 11 43
a 11 44
a 11 46
a 11 114
a 11 47
a 11 48
a 11 49
a 11 50
a 11 51
a 11 52
a 11 53
a 11 54
a 11 55
a 11 181
a 11 56
a 11 57
a 11 58
a 11 59
a 11 60
a 11 61
a 11 62
a 11 63
a 11 185
a 11 220
a 11 386
a 11 350
a 11 153
a 11 391
a 11 221
a 11 229
a 11 230
a 11 398
a 11 231
a 11 449
a 11 399
a 11 400
a 11 450
a 11 232
a 11 234
a 11 134
a 11 159
a 11 243
a 11 161
a 11 459
a 11 162
a 11 110
a 11 30
a 11 464
a 11 303
a 11 173
a 11 394
a 11 115
a 11 99
a 11 436
a 103 2
a 103 147
a 103 137
a 103 6
a 103 315
a 103 68
a 103 74
a 103 75
a 103 76
a 103 77
a 103 78
a 103 151
a 103 397
a 103 218
a 103 390
a 103 377
a 103 441
a 103 478
a 103 349
a 103 477
a 103 378
a 103 442
a 103 11
a 103 139
a 103 3
a 103 117
a 103 148
a 103 10
a 103 89
a 103 219
a 103 12
a 103 107
a 103 16
a 103 17
a 103 20
a 103 236
a 103 238
a 103 239
a 103 320
a 103 21
a 103 128
a 103 23
a 103 253
a 103 255
a 103 25
a 103 412
a 103 34
a 103 41
a 103 113
a 103 42
a 103 43
a 103 44
a 103 46
a 103 114
a 103 47
a 103 48
a 103 49
a 103 50
a 103 51
a 103 52
a 103 53
a 103 54
a 103 55
a 103 181
a 103 56
a 103 57
a 103 58
a 103 59
a 103 60
a 103 61
a 103 62
a 103 63
a 103 185
a 103 220
a 103 386
a 103 350
a 103 152
a 103 153
a 103 445
a 103 446
a 103 391
a 103 229
a 103 230
a 103 231
a 103 141
a 103 232
a 103 154
a 103 155
a 103 134
a 103 108
a 103 127
a 103 392
a 103 456
a 103 243
a 103 457
a 103 251
a 103 367
a 103 33
a 103 284
a 103 297
a 103 303
a 103 394
a 103 112
a 103 308
a 103 135
a 103 432
a 103 376
a 103 40
a 104 2
a 104 314
a 104 315
a 104 316
a 104 7
a 104 8
a 104 186
a 104 187
a 104 188
a 104 189
a 104 332
a 104 190
a 104 191
a 104 192
a 104 193
a 104 194
a 104 195
a 104 196
a 104 197
a 104 198
a 104 199
a 104 200
a 104 334
a 104 201
a 104 202
a 104 336
a 104 203
a 104 204
a 104 205
a 104 206
a 104 337
a 104 338
a 104 207
a 104 208
a 104 209
a 104 339
a 104 340
a 104 148
a 104 341
a 104 9
a 104 395
a 104 342
a 104 438
a 104 210
a 104 212
a 104 213
a 104 343
a 104 214
a 104 215
a 104 344
a 104 216
a 104 345
a 104 347
a 104 348
a 104 68
a 104 70
a 104 73
a 104 95
a 104 389
a 104 349
a 104 378
a 104 11
a 104 139
a 104 350
a 104 153
a 104 221
a 104 119
a 104 137
a 104 6
a 104 318
a 104 64
a 104 65
a 104 66
a 104 84
a 104 138
a 104 10
a 104 89
a 104 102
a 104 151
a 104 220
a 104 386
a 104 222
a 104 379
a 104 223
a 104 225
a 104 381
a 104 12
a 104 13
a 104 140
a 104 105
a 104 232
a 104 154
a 104 106
a 104 158
a 104 107
a 104 14
a 104 133
a 104 134
a 104 16
a 104 159
a 104 17
a 104 18
a 104 319
a 104 96
a 104 20
a 104 236
a 104 240
a 104 21
a 104 22
a 104 127
a 104 128
a 104 23
a 104 163
a 104 164
a 104 251
a 104 253
a 104 255
a 104 25
a 104 26
a 104 271
a 104 110
a 104 28
a 104 29
a 104 273
a 104 30
a 104 275
a 104 167
a 104 326
a 104 328
a 104 329
a 104 413
a 104 280
a 104 281
a 104 330
a 104 283
a 104 32
a 104 34
a 104 289
a 104 35
a 104 111
a 104 36
a 104 37
a 104 426
a 104 299
a 104 38
a 104 394
a 104 429
a 104 112
a 104 175
a 104 135
a 104 177
a 104 179
a 104 136
a 104 40
a 104 41
a 104 113
a 104 42
a 104 43
a 104 44
a 104 45
a 104 46
a 104 114
a 104 47
a 104 48
a 104 49
a 104 115
a 104 50
a 104 51
a 104 52
a 104 53
a 104 54
a 104 55
a 104 181
a 104 56
a 104 57
a 104 58
a 104 59
a 104 60
a 104 99
a 104 183
a 104 61
a 104 62
a 104 184
a 104 63
a 104 185
a 104 224
a 104 226
a 104 227
a 104 380
a 104 228
a 104 229
a 104 447
a 104 448
a 104 230
a 104 398
a 104 231
a 104 449
a 104 399
a 104 400
a 104 401
a 104 402
a 104 450
a 104 451
a 104 141
a 104 142
a 104 233
a 104 155
a 104 15
a 104 403
a 104 19
a 104 97
a 104 108
a 104 98
a 104 320
a 104 143
a 104 241
a 104 392
a 104 456
a 104 161
a 104 459
a 104 162
a 104 109
a 104 244
a 104 245
a 104 354
a 104 246
a 104 355
a 104 356
a 104 358
a 104 247
a 104 165
a 104 248
a 104 249
a 104 250
a 104 166
a 104 359
a 104 321
a 104 252
a 104 24
a 104 254
a 104 360
a 104 322
a 104 361
a 104 479
a 104 480
a 104 256
a 104 257
a 104 260
a 104 261
a 104 263
a 104 264
a 104 406
a 104 265
a 104 266
a 104 323
a 104 461
a 104 129
a 104 364
a 104 365
a 104 407
a 104 267
a 104 268
a 104 27
a 104 269
a 104 408
a 104 462
a 104 270
a 104 272
a 104 463
a 104 366
a 104 464
a 104 367
a 104 168
a 104 31
a 104 169
a 104 277
a 104 325
a 104 409
a 104 410
a 104 327
a 104 278
a 104 368
a 104 279
a 104 369
a 104 411
a 104 384
a 104 412
a 104 414
a 104 370
a 104 282
a 104 371
a 104 415
a 104 33
a 104 284
a 104 170
a 104 285
a 104 466
a 104 372
a 104 287
a 104 288
a 104 290
a 104 331
a 104 467
a 104 419
a 104 373
a 104 420
a 104 421
a 104 422
a 104 468
a 104 423
a 104 291
a 104 292
a 104 424
a 104 293
a 104 294
a 104 297
a 104 171
a 104 298
a 104 300
a 104 301
a 104 302
a 104 303
a 104 304
a 104 471
a 104 472
a 104 305
a 104 173
a 104 306
a 104 307
a 104 427
a 104 144
a 104 374
a 104 174
a 104 431
a 104 308
a 104 473
a 104 178
a 104 475
a 104 39
a 104 433
a 104 309
a 12 2
a 12 5
a 12 3
a 12 117
a 12 1
a 12 100
a 12 118
a 12 119
a 12 120
a 12 146
a 12 121
a 12 147
a 12 7
a 12 186
a 12 187
a 12 188
a 12 189
a 12 332
a 12 190
a 12 191
a 12 192
a 12 193
a 12 194
a 12 195
a 12 196
a 12 333
a 12 197
a 12 198
a 12 199
a 12 200
a 12 201
a 12 202
a 12 203
a 12 205
a 12 206
a 12 337
a 12 207
a 12 208
a 12 209
a 12 340
a 12 148
a 12 9
a 12 395
a 12 342
a 12 212
a 12 213
a 12 214
a 12 344
a 12 216
a 12 346
a 12 347
a 12 68
a 12 138
a 12 10
a 12 151
a 12 397
a 12 218
a 12 390
a 12 377
a 12 378
a 12 11
a 12 139
a 12 103
a 12 219
a 12 220
a 12 386
a 12 350
a 12 445
a 12 446
a 12 391
a 12 104
a 12 222
a 12 223
a 12 224
a 12 225
a 12 226
a 12 227
a 12 228
a 12 132
a 12 6
a 12 318
a 12 345
a 12 64
a 12 80
a 12 83
a 12 84
a 12 102
a 12 221
a 12 379
a 12 381
a 12 13
a 12 140
a 12 141
a 12 142
a 12 105
a 12 232
a 12 233
a 12 154
a 12 155
a 12 106
a 12 107
a 12 14
a 12 133
a 12 134
a 12 16
a 12 159
a 12 17
a 12 96
a 12 20
a 12 236
a 12 237
a 12 240
a 12 21
a 12 22
a 12 127
a 12 128
a 12 164
a 12 166
a 12 251
a 12 253
a 12 24
a 12 255
a 12 25
a 12 256
a 12 362
a 12 263
a 12 264
a 12 363
a 12 271
a 12 272
a 12 110
a 12 28
a 12 29
a 12 273
a 12 30
a 12 367
a 12 167
a 12 410
a 12 279
a 12 413
a 12 414
a 12 281
a 12 32
a 12 34
a 12 111
a 12 38
a 12 394
a 12 429
a 12 112
a 12 135
a 12 177
a 12 179
a 12 136
a 12 39
a 12 40
a 12 41
a 12 113
a 12 42
a 12 43
a 12 44
a 12 45
a 12 46
a 12 114
a 12 47
a 12 48
a 12 49
a 12 115
a 12 50
a 12 51
a 12 52
a 12 53
a 12 54
a 12 55
a 12 181
a 12 56
a 12 57
a 12 58
a 12 59
a 12 60
a 12 99
a 12 183
a 12 61
a 12 62
a 12 184
a 12 63
a 12 185
a 12 229
a 12 447
a 12 448
a 12 230
a 12 398
a 12 231
a 12 449
a 12 399
a 12 400
a 12 401
a 12 402
a 12 451
a 12 158
a 12 15
a 12 403
a 12 18
a 12 319
a 12 235
a 12 352
a 12 239
a 12 97
a 12 241
a 12 242
a 12 353
a 12 23
a 12 243
a 12 457
a 12 161
a 12 162
a 12 163
a 12 250
a 12 252
a 12 254
a 12 26
a 12 261
a 12 265
a 12 407
a 12 268
a 12 27
a 12 269
a 12 130
a 12 463
a 12 366
a 12 275
a 12 31
a 12 277
a 12 328
a 12 278
a 12 329
a 12 384
a 12 280
a 12 283
a 12 170
a 12 285
a 12 372
a 12 331
a 12 373
a 12 420
a 12 422
a 12 468
a 12 423
a 12 291
a 12 293
a 12 294
a 12 297
a 12 36
a 12 171
a 12 298
a 12 300
a 12 301
a 12 302
a 12 303
a 12 472
a 12 305
a 12 173
a 12 306
a 12 144
a 12 174
a 12 175
a 12 375
a 12 176
a 12 430
a 12 431
a 12 308
a 12 473
a 12 178
a 12 474
a 12 376
a 12 309
a 12 434
a 12 182
a 12 116
a 12 396
a 13 2
a 13 5
a 13 3
a 13 1
a 13 100
a 13 131
a 13 119
a 13 145
a 13 120
a 13 121
a 13 6
a 13 346
a 13 439
a 13 348
a 13 64
a 13 65
a 13 66
a 13 382
a 13 67
a 13 124
a 13 68
a 13 69
a 13 70
a 13 71
a 13 72
a 13 73
a 13 138
a 13 10
a 13 126
a 13 88
a 13 95
a 13 150
a 13 389
a 13 446
a 13 104
a 13 228
a 13 12
a 13 137
a 13 148
a 13 102
a 13 221
a 13 222
a 13 379
a 13 225
a 13 381
a 13 232
a 13 106
a 13 16
a 13 240
a 13 21
a 13 22
a 13 128
a 13 164
a 13 251
a 13 253
a 13 255
a 13 25
a 13 271
a 13 110
a 13 28
a 13 29
a 13 273
a 13 30
a 13 167
a 13 413
a 13 32
a 13 34
a 13 38
a 13 394
a 13 40
a 13 41
a 13 113
a 13 42
a 13 43
a 13 44
a 13 46
a 13 114
a 13 47
a 13 48
a 13 49
a 13 115
a 13 50
a 13 51
a 13 52
a 13 53
a 13 54
a 13 55
a 13 181
a 13 56
a 13 57
a 13 58
a 13 59
a 13 60
a 13 99
a 13 61
a 13 62
a 13 63
a 13 185
a 13 229
a 13 230
a 13 231
a 13 399
a 13 402
a 13 141
a 13 142
a 13 403
a 13 20
a 13 109
a 13 252
a 13 361
a 13 256
a 13 26
a 13 257
a 13 260
a 13 263
a 13 264
a 13 265
a 13 461
a 13 407
a 13 267
a 13 268
a 13 27
a 13 269
a 13 270
a 13 272
a 13 130
a 13 464
a 13 275
a 13 367
a 13 276
a 13 168
a 13 31
a 13 169
a 13 277
a 13 325
a 13 409
a 13 410
a 13 326
a 13 328
a 13 278
a 13 368
a 13 279
a 13 329
a 13 369
a 13 411
a 13 384
a 13 412
a 13 414
a 13 370
a 13 280
a 13 281
a 13 282
a 13 330
a 13 283
a 13 465
a 13 285
a 13 287
a 13 288
a 13 289
a 13 290
a 13 331
a 13 467
a 13 419
a 13 373
a 13 420
a 13 421
a 13 422
a 13 468
a 13 469
a 13 423
a 13 111
a 13 293
a 13 294
a 13 297
a 13 37
a 13 171
a 13 300
a 13 172
a 13 301
a 13 304
a 13 306
a 13 307
a 13 431
a 13 308
a 13 473
a 13 135
a 13 39
a 13 433
a 13 309
a 105 2
a 105 3
a 105 100
a 105 119
a 105 318
a 105 317
a 105 186
a 105 188
a 105 189
a 105 332
a 105 190
a 105 193
a 105 194
a 105 196
a 105 197
a 105 198
a 105 199
a 105 201
a 105 203
a 105 205
a 105 340
a 105 148
a 105 342
a 105 344
a 105 217
a 105 346
a 105 348
a 105 64
a 105 65
a 105 66
a 105 382
a 105 124
a 105 68
a 105 69
a 105 70
a 105 72
a 105 73
a 105 74
a 105 77
a 105 78
a 105 80
a 105 81
a 105 82
a 105 83
a 105 84
a 105 86
a 105 126
a 105 92
a 105 93
a 105 95
a 105 102
a 105 389
a 105 151
a 105 397
a 105 218
a 105 377
a 105 139
a 105 443
a 105 220
a 105 350
a 105 446
a 105 104
a 105 223
a 105 12
a 105 229
a 105 230
a 105 398
a 105 231
a 105 399
a 105 400
a 105 401
a 105 402
a 105 141
a 105 142
a 105 10
a 105 378
a 105 232
a 105 154
a 105 106
a 105 157
a 105 107
a 105 133
a 105 134
a 105 16
a 105 96
a 105 21
a 105 22
a 105 128
a 105 164
a 105 253
a 105 25
a 105 28
a 105 414
a 105 32
a 105 34
a 105 111
a 105 112
a 105 41
a 105 113
a 105 42
a 105 43
a 105 44
a 105 46
a 105 114
a 105 47
a 105 48
a 105 49
a 105 115
a 105 50
a 105 51
a 105 52
a 105 53
a 105 54
a 105 55
a 105 181
a 105 56
a 105 57
a 105 58
a 105 59
a 105 60
a 105 99
a 105 183
a 105 61
a 105 62
a 105 63
a 105 185
a 105 155
a 105 158
a 105 234
a 105 14
a 105 15
a 105 403
a 105 159
a 105 404
a 105 405
a 105 17
a 105 18
a 105 19
a 105 235
a 105 20
a 105 236
a 105 237
a 105 239
a 105 97
a 105 108
a 105 98
a 105 143
a 105 240
a 105 242
a 105 353
a 105 127
a 105 23
a 105 392
a 105 243
a 105 109
a 105 244
a 105 245
a 105 248
a 105 249
a 105 250
a 105 251
a 105 252
a 105 255
a 105 256
a 105 26
a 105 257
a 105 263
a 105 264
a 105 406
a 105 265
a 105 266
a 105 129
a 105 407
a 105 267
a 105 268
a 105 27
a 105 269
a 105 270
a 105 271
a 105 272
a 105 110
a 105 273
a 105 274
a 105 30
a 105 275
a 105 367
a 105 167
a 105 276
a 105 168
a 105 31
a 105 169
a 105 277
a 105 325
a 105 409
a 105 410
a 105 326
a 105 328
a 105 278
a 105 368
a 105 279
a 105 329
a 105 384
a 105 412
a 105 370
a 105 280
a 105 281
a 105 282
a 105 330
a 105 283
a 105 415
a 105 33
a 105 284
a 105 416
a 105 417
a 105 170
a 105 285
a 105 372
a 105 286
a 105 287
a 105 288
a 105 289
a 105 290
a 105 420
a 105 422
a 105 292
a 105 293
a 105 294
a 105 295
a 105 296
a 105 297
a 105 37
a 105 426
a 105 299
a 105 38
a 105 300
a 105 172
a 105 301
a 105 302
a 105 303
a 105 304
a 105 306
a 105 307
a 105 427
a 105 144
a 105 394
a 105 174
a 105 428
a 105 429
a 105 175
a 105 430
a 105 431
a 105 308
a 105 135
a 105 432
a 105 39
a 105 433
a 105 309
a 105 40
a 105 45
a 105 180
a 105 434
a 105 435
a 105 311
a 105 182
a 105 312
a 105 116
a 105 436
a 105 184
a 106 2
a 106 5
a 106 3
a 106 100
a 106 121
a 106 137
a 106 6
a 106 315
a 106 318
a 106 317
a 106 7
a 106 8
a 106 186
a 106 188
a 106 189
a 106 332
a 106 190
a 106 193
a 106 194
a 106 196
a 106 197
a 106 198
a 106 199
a 106 201
a 106 203
a 106 205
a 106 340
a 106 148
a 106 395
a 106 342
a 106 212
a 106 213
a 106 214
a 106 344
a 106 216
a 106 217
a 106 346
a 106 149
a 106 347
a 106 348
a 106 64
a 106 65
a 106 66
a 106 382
a 106 122
a 106 123
a 106 67
a 106 124
a 106 68
a 106 125
a 106 69
a 106 70
a 106 72
a 106 383
a 106 73
a 106 74
a 106 75
a 106 77
a 106 78
a 106 80
a 106 81
a 106 82
a 106 83
a 106 84
a 106 86
a 106 138
a 106 10
a 106 126
a 106 88
a 106 101
a 106 92
a 106 93
a 106 95
a 106 102
a 106 150
a 106 151
a 106 397
a 106 218
a 106 377
a 106 378
a 106 443
a 106 444
a 106 481
a 106 219
a 106 220
a 106 386
a 106 350
a 106 153
a 106 445
a 106 446
a 106 391
a 106 221
a 106 104
a 106 222
a 106 223
a 106 224
a 106 225
a 106 227
a 106 12
a 106 13
a 106 229
a 106 447
a 106 448
a 106 230
a 106 398
a 106 231
a 106 399
a 106 400
a 106 401
a 106 402
a 106 451
a 106 141
a 106 142
a 106 105
a 106 232
a 106 154
a 106 155
a 106 140
a 106 107
a 106 134
a 106 16
a 106 452
a 106 17
a 106 96
a 106 352
a 106 20
a 106 236
a 106 237
a 106 21
a 106 127
a 106 128
a 106 253
a 106 255
a 106 25
a 106 406
a 106 266
a 106 271
a 106 28
a 106 273
a 106 30
a 106 167
a 106 279
a 106 414
a 106 32
a 106 34
a 106 417
a 106 289
a 106 296
a 106 297
a 106 174
a 106 428
a 106 112
a 106 136
a 106 41
a 106 113
a 106 42
a 106 43
a 106 44
a 106 46
a 106 114
a 106 47
a 106 48
a 106 49
a 106 50
a 106 51
a 106 52
a 106 53
a 106 54
a 106 55
a 106 181
a 106 56
a 106 57
a 106 58
a 106 59
a 106 60
a 106 99
a 106 183
a 106 61
a 106 62
a 106 63
a 106 185
a 106 157
a 106 158
a 106 234
a 106 14
a 106 15
a 106 403
a 106 133
a 106 159
a 106 404
a 106 160
a 106 405
a 106 18
a 106 19
a 106 235
a 106 239
a 106 97
a 106 108
a 106 98
a 106 320
a 106 143
a 106 240
a 106 241
a 106 242
a 106 22
a 106 353
a 106 23
a 106 392
a 106 243
a 106 161
a 106 459
a 106 164
a 106 109
a 106 244
a 106 245
a 106 248
a 106 249
a 106 250
a 106 321
a 106 251
a 106 252
a 106 254
a 106 256
a 106 26
a 106 460
a 106 257
a 106 260
a 106 263
a 106 264
a 106 265
a 106 323
a 106 363
a 106 129
a 106 365
a 106 407
a 106 267
a 106 268
a 106 27
a 106 269
a 106 408
a 106 462
a 106 270
a 106 272
a 106 130
a 106 110
a 106 463
a 106 274
a 106 366
a 106 275
a 106 367
a 106 276
a 106 168
a 106 31
a 106 169
a 106 277
a 106 325
a 106 409
a 106 410
a 106 326
a 106 327
a 106 328
a 106 278
a 106 368
a 106 329
a 106 411
a 106 384
a 106 412
a 106 413
a 106 370
a 106 280
a 106 281
a 106 282
a 106 330
a 106 283
a 106 415
a 106 33
a 106 284
a 106 416
a 106 170
a 106 285
a 106 372
a 106 286
a 106 287
a 106 288
a 106 290
a 106 419
a 106 373
a 106 420
a 106 421
a 106 422
a 106 423
a 106 35
a 106 291
a 106 292
a 106 111
a 106 424
a 106 293
a 106 294
a 106 295
a 106 36
a 106 425
a 106 37
a 106 171
a 106 298
a 106 426
a 106 299
a 106 38
a 106 300
a 106 172
a 106 301
a 106 302
a 106 303
a 106 304
a 106 471
a 106 472
a 106 305
a 106 173
a 106 306
a 106 307
a 106 427
a 106 144
a 106 394
a 106 374
a 106 429
a 106 175
a 106 176
a 106 430
a 106 431
a 106 308
a 106 473
a 106 135
a 106 177
a 106 474
a 106 432
a 106 39
a 106 433
a 106 309
a 106 40
a 106 45
a 106 180
a 106 115
a 106 434
a 106 435
a 106 182
a 106 312
a 106 116
a 106 396
a 106 385
a 106 313
a 106 476
a 106 436
a 106 184
a 107 2
a 107 119
a 107 120
a 107 147
a 107 6
a 107 7
a 107 186
a 107 187
a 107 188
a 107 189
a 107 332
a 107 190
a 107 192
a 107 193
a 107 194
a 107 196
a 107 197
a 107 198
a 107 199
a 107 200
a 107 201
a 107 202
a 107 203
a 107 205
a 107 337
a 107 209
a 107 148
a 107 217
a 107 346
a 107 439
a 107 149
a 107 347
a 107 348
a 107 64
a 107 65
a 107 66
a 107 382
a 107 122
a 107 123
a 107 67
a 107 124
a 107 68
a 107 125
a 107 69
a 107 70
a 107 71
a 107 72
a 107 383
a 107 73
a 107 74
a 107 75
a 107 76
a 107 77
a 107 78
a 107 79
a 107 80
a 107 81
a 107 82
a 107 83
a 107 84
a 107 85
a 107 387
a 107 86
a 107 87
a 107 138
a 107 10
a 107 126
a 107 88
a 107 89
a 107 90
a 107 91
a 107 101
a 107 92
a 107 93
a 107 440
a 107 94
a 107 95
a 107 102
a 107 150
a 107 388
a 107 389
a 107 151
a 107 397
a 107 218
a 107 390
a 107 377
a 107 441
a 107 478
a 107 349
a 107 477
a 107 378
a 107 442
a 107 11
a 107 139
a 107 103
a 107 443
a 107 444
a 107 482
a 107 219
a 107 220
a 107 386
a 107 350
a 107 152
a 107 153
a 107 445
a 107 446
a 107 483
a 107 391
a 107 221
a 107 104
a 107 222
a 107 223
a 107 224
a 107 225
a 107 228
a 107 12
a 107 229
a 107 447
a 107 448
a 107 230
a 107 398
a 107 231
a 107 449
a 107 399
a 107 400
a 107 401
a 107 402
a 107 450
a 107 451
a 107 140
a 107 141
a 107 142
a 107 105
a 107 232
a 107 233
a 107 154
a 107 155
a 107 106
a 107 156
a 107 157
a 107 158
a 107 318
a 107 379
a 107 14
a 107 15
a 107 403
a 107 133
a 107 134
a 107 484
a 107 16
a 107 159
a 107 404
a 107 160
a 107 405
a 107 452
a 107 453
a 107 454
a 107 17
a 107 319
a 107 96
a 107 352
a 107 20
a 107 236
a 107 108
a 107 240
a 107 21
a 107 22
a 107 127
a 107 128
a 107 161
a 107 162
a 107 164
a 107 253
a 107 24
a 107 255
a 107 25
a 107 256
a 107 460
a 107 362
a 107 258
a 107 260
a 107 261
a 107 263
a 107 264
a 107 265
a 107 266
a 107 323
a 107 461
a 107 129
a 107 324
a 107 271
a 107 110
a 107 28
a 107 273
a 107 274
a 107 366
a 107 30
a 107 167
a 107 168
a 107 169
a 107 279
a 107 414
a 107 280
a 107 281
a 107 282
a 107 283
a 107 32
a 107 34
a 107 289
a 107 35
a 107 111
a 107 36
a 107 470
a 107 37
a 107 38
a 107 174
a 107 112
a 107 175
a 107 176
a 107 135
a 107 177
a 107 178
a 107 179
a 107 136
a 107 40
a 107 41
a 107 113
a 107 42
a 107 43
a 107 44
a 107 45
a 107 180
a 107 46
a 107 114
a 107 47
a 107 48
a 107 49
a 107 115
a 107 50
a 107 51
a 107 52
a 107 53
a 107 54
a 107 55
a 107 181
a 107 56
a 107 57
a 107 58
a 107 59
a 107 60
a 107 99
a 107 183
a 107 61
a 107 396
a 107 62
a 107 184
a 107 63
a 107 185
a 107 18
a 107 351
a 107 19
a 107 235
a 107 455
a 107 237
a 107 238
a 107 239
a 107 97
a 107 98
a 107 320
a 107 143
a 107 241
a 107 242
a 107 353
a 107 485
a 107 23
a 107 392
a 107 456
a 107 243
a 107 457
a 107 458
a 107 459
a 107 163
a 107 109
a 107 245
a 107 354
a 107 246
a 107 355
a 107 356
a 107 357
a 107 358
a 107 247
a 107 165
a 107 248
a 107 249
a 107 250
a 107 166
a 107 251
a 107 252
a 107 254
a 107 360
a 107 322
a 107 361
a 107 479
a 107 26
a 107 257
a 107 406
a 107 363
a 107 364
a 107 365
a 107 407
a 107 267
a 107 268
a 107 27
a 107 269
a 107 408
a 107 462
a 107 270
a 107 272
a 107 130
a 107 463
a 107 29
a 107 464
a 107 275
a 107 367
a 107 276
a 107 31
a 107 277
a 107 325
a 107 409
a 107 410
a 107 326
a 107 327
a 107 328
a 107 278
a 107 329
a 107 411
a 107 384
a 107 413
a 107 370
a 107 330
a 107 371
a 107 415
a 107 33
a 107 284
a 107 416
a 107 417
a 107 418
a 107 170
a 107 393
a 107 465
a 107 285
a 107 466
a 107 372
a 107 286
a 107 287
a 107 288
a 107 290
a 107 331
a 107 467
a 107 419
a 107 373
a 107 420
a 107 421
a 107 422
a 107 468
a 107 469
a 107 423
a 107 291
a 107 292
a 107 424
a 107 293
a 107 294
a 107 295
a 107 296
a 107 297
a 107 425
a 107 171
a 107 298
a 107 426
a 107 299
a 107 300
a 107 172
a 107 301
a 107 303
a 107 304
a 107 471
a 107 472
a 107 173
a 107 306
a 107 307
a 107 427
a 107 144
a 107 394
a 107 374
a 107 428
a 107 429
a 107 375
a 107 430
a 107 431
a 107 308
a 107 473
a 107 474
a 107 475
a 107 432
a 107 39
a 107 376
a 107 309
a 107 182
a 107 312
a 107 116
a 107 313
a 107 436
a 14 2
a 14 5
a 14 3
a 14 4
a 14 117
a 14 1
a 14 100
a 14 118
a 14 119
a 14 120
a 14 146
a 14 121
a 14 147
a 14 137
a 14 318
a 14 317
a 14 7
a 14 217
a 14 346
a 14 149
a 14 348
a 14 64
a 14 65
a 14 66
a 14 68
a 14 70
a 14 73
a 14 78
a 14 81
a 14 82
a 14 83
a 14 84
a 14 86
a 14 126
a 14 95
a 14 102
a 14 151
a 14 218
a 14 377
a 14 219
a 14 220
a 14 350
a 14 221
a 14 104
a 14 223
a 14 225
a 14 12
a 14 229
a 14 230
a 14 398
a 14 449
a 14 399
a 14 402
a 14 141
a 14 142
a 14 154
a 14 155
a 14 107
a 14 234
a 14 148
a 14 138
a 14 10
a 14 378
a 14 105
a 14 232
a 14 106
a 14 15
a 14 403
a 14 133
a 14 134
a 14 484
a 14 16
a 14 159
a 14 160
a 14 405
a 14 452
a 14 17
a 14 352
a 14 21
a 14 22
a 14 128
a 14 253
a 14 25
a 14 367
a 14 279
a 14 370
a 14 32
a 14 34
a 14 111
a 14 38
a 14 172
a 14 112
a 14 135
a 14 179
a 14 136
a 14 41
a 14 113
a 14 42
a 14 43
a 14 44
a 14 46
a 14 114
a 14 47
a 14 49
a 14 115
a 14 50
a 14 51
a 14 52
a 14 53
a 14 54
a 14 55
a 14 181
a 14 56
a 14 57
a 14 58
a 14 59
a 14 60
a 14 99
a 14 183
a 14 61
a 14 62
a 14 63
a 14 185
a 14 404
a 14 453
a 14 18
a 14 235
a 14 20
a 14 236
a 14 239
a 14 97
a 14 108
a 14 98
a 14 143
a 14 240
a 14 353
a 14 127
a 14 23
a 14 243
a 14 164
a 14 109
a 14 244
a 14 249
a 14 250
a 14 255
a 14 256
a 14 263
a 14 264
a 14 265
a 14 266
a 14 129
a 14 267
a 14 268
a 14 27
a 14 269
a 14 271
a 14 272
a 14 110
a 14 28
a 14 273
a 14 274
a 14 30
a 14 275
a 14 167
a 14 276
a 14 168
a 14 31
a 14 277
a 14 409
a 14 326
a 14 328
a 14 278
a 14 384
a 14 412
a 14 280
a 14 281
a 14 282
a 14 283
a 14 33
a 14 284
a 14 416
a 14 417
a 14 170
a 14 285
a 14 286
a 14 287
a 14 288
a 14 289
a 14 290
a 14 419
a 14 420
a 14 422
a 14 35
a 14 291
a 14 292
a 14 424
a 14 293
a 14 294
a 14 295
a 14 296
a 14 297
a 14 36
a 14 37
a 14 171
a 14 299
a 14 300
a 14 301
a 14 302
a 14 303
a 14 304
a 14 305
a 14 306
a 14 307
a 14 427
a 14 144
a 14 394
a 14 429
a 14 175
a 14 308
a 14 40
a 14 180
a 14 48
a 14 434
a 14 435
a 14 311
a 14 182
a 14 312
a 14 116
a 14 396
a 14 385
a 14 313
a 14 476
a 14 436
a 15 2
a 15 5
a 15 3
a 15 4
a 15 117
a 15 1
a 15 100
a 15 118
a 15 119
a 15 120
a 15 146
a 15 121
a 15 147
a 15 6
a 15 317
a 15 186
a 15 188
a 15 189
a 15 193
a 15 196
a 15 197
a 15 198
a 15 199
a 15 205
a 15 340
a 15 148
a 15 344
a 15 217
a 15 346
a 15 64
a 15 68
a 15 81
a 15 126
a 15 151
a 15 220
a 15 141
a 15 107
a 15 234
a 15 14
a 15 149
a 15 65
a 15 66
a 15 84
a 15 138
a 15 10
a 15 102
a 15 150
a 15 390
a 15 378
a 15 391
a 15 104
a 15 12
a 15 142
a 15 105
a 15 232
a 15 154
a 15 106
a 15 403
a 15 133
a 15 134
a 15 484
a 15 16
a 15 159
a 15 404
a 15 160
a 15 405
a 15 452
a 15 453
a 15 454
a 15 17
a 15 352
a 15 236
a 15 21
a 15 22
a 15 127
a 15 128
a 15 392
a 15 161
a 15 162
a 15 164
a 15 165
a 15 253
a 15 255
a 15 25
a 15 271
a 15 28
a 15 367
a 15 167
a 15 279
a 15 370
a 15 32
a 15 34
a 15 289
a 15 111
a 15 424
a 15 294
a 15 38
a 15 172
a 15 301
a 15 174
a 15 112
a 15 175
a 15 176
a 15 308
a 15 135
a 15 177
a 15 178
a 15 179
a 15 136
a 15 41
a 15 113
a 15 42
a 15 43
a 15 44
a 15 180
a 15 46
a 15 114
a 15 47
a 15 48
a 15 49
a 15 115
a 15 50
a 15 51
a 15 52
a 15 53
a 15 54
a 15 55
a 15 181
a 15 56
a 15 57
a 15 58
a 15 59
a 15 60
a 15 99
a 15 183
a 15 61
a 15 396
a 15 62
a 15 184
a 15 63
a 15 185
a 15 97
a 15 240
a 15 250
a 15 256
a 15 267
a 15 27
a 15 31
a 15 277
a 15 280
a 15 281
a 15 284
a 15 285
a 15 286
a 15 288
a 15 290
a 15 291
a 15 292
a 15 293
a 15 296
a 15 297
a 15 299
a 15 300
a 15 302
a 15 307
a 15 434
a 15 311
a 15 182
a 15 312
a 15 116
a 15 385
a 15 476
a 15 436
a 16 2
a 16 5
a 16 3
a 16 117
a 16 1
a 16 100
a 16 118
a 16 119
a 16 120
a 16 121
a 16 147
a 16 137
a 16 6
a 16 314
a 16 315
a 16 316
a 16 318
a 16 317
a 16 7
a 16 8
a 16 186
a 16 187
a 16 188
a 16 189
a 16 332
a 16 190
a 16 193
a 16 194
a 16 196
a 16 197
a 16 198
a 16 199
a 16 200
a 16 201
a 16 202
a 16 203
a 16 205
a 16 207
a 16 208
a 16 340
a 16 148
a 16 341
a 16 9
a 16 395
a 16 342
a 16 438
a 16 210
a 16 212
a 16 213
a 16 343
a 16 214
a 16 215
a 16 344
a 16 216
a 16 345
a 16 217
a 16 346
a 16 439
a 16 149
a 16 347
a 16 348
a 16 64
a 16 65
a 16 66
a 16 382
a 16 122
a 16 123
a 16 67
a 16 124
a 16 68
a 16 125
a 16 69
a 16 70
a 16 71
a 16 72
a 16 383
a 16 73
a 16 74
a 16 75
a 16 76
a 16 77
a 16 78
a 16 79
a 16 80
a 16 81
a 16 82
a 16 83
a 16 84
a 16 85
a 16 387
a 16 86
a 16 138
a 16 10
a 16 126
a 16 88
a 16 89
a 16 90
a 16 101
a 16 92
a 16 93
a 16 440
a 16 94
a 16 95
a 16 102
a 16 150
a 16 388
a 16 389
a 16 151
a 16 397
a 16 218
a 16 390
a 16 377
a 16 441
a 16 478
a 16 349
a 16 477
a 16 378
a 16 442
a 16 11
a 16 139
a 16 103
a 16 443
a 16 444
a 16 219
a 16 220
a 16 386
a 16 350
a 16 152
a 16 153
a 16 445
a 16 446
a 16 483
a 16 391
a 16 221
a 16 104
a 16 222
a 16 379
a 16 223
a 16 224
a 16 225
a 16 226
a 16 227
a 16 380
a 16 228
a 16 381
a 16 12
a 16 13
a 16 229
a 16 447
a 16 448
a 16 230
a 16 398
a 16 231
a 16 449
a 16 399
a 16 400
a 16 401
a 16 402
a 16 450
a 16 451
a 16 140
a 16 141
a 16 142
a 16 105
a 16 232
a 16 233
a 16 154
a 16 155
a 16 106
a 16 156
a 16 157
a 16 158
a 16 107
a 16 234
a 16 14
a 16 15
a 16 403
a 16 133
a 16 134
a 16 484
a 16 159
a 16 404
a 16 160
a 16 405
a 16 452
a 16 453
a 16 454
a 16 17
a 16 96
a 16 352
a 16 240
a 16 21
a 16 22
a 16 128
a 16 253
a 16 255
a 16 25
a 16 28
a 16 367
a 16 167
a 16 370
a 16 34
a 16 111
a 16 38
a 16 112
a 16 135
a 16 179
a 16 136
a 16 41
a 16 113
a 16 42
a 16 43
a 16 44
a 16 46
a 16 114
a 16 47
a 16 48
a 16 49
a 16 115
a 16 50
a 16 51
a 16 52
a 16 53
a 16 54
a 16 55
a 16 181
a 16 56
a 16 57
a 16 58
a 16 59
a 16 60
a 16 99
a 16 61
a 16 62
a 16 184
a 16 63
a 16 185
a 16 18
a 16 19
a 16 319
a 16 235
a 16 455
a 16 20
a 16 236
a 16 237
a 16 238
a 16 239
a 16 97
a 16 108
a 16 98
a 16 320
a 16 143
a 16 241
a 16 242
a 16 353
a 16 127
a 16 23
a 16 392
a 16 456
a 16 243
a 16 457
a 16 458
a 16 161
a 16 459
a 16 162
a 16 163
a 16 164
a 16 109
a 16 244
a 16 245
a 16 354
a 16 246
a 16 355
a 16 356
a 16 357
a 16 358
a 16 247
a 16 165
a 16 248
a 16 249
a 16 250
a 16 166
a 16 359
a 16 321
a 16 251
a 16 252
a 16 24
a 16 254
a 16 360
a 16 322
a 16 361
a 16 256
a 16 26
a 16 460
a 16 362
a 16 257
a 16 258
a 16 259
a 16 260
a 16 261
a 16 263
a 16 264
a 16 406
a 16 265
a 16 266
a 16 323
a 16 363
a 16 461
a 16 129
a 16 324
a 16 364
a 16 365
a 16 407
a 16 267
a 16 268
a 16 27
a 16 269
a 16 408
a 16 462
a 16 270
a 16 271
a 16 272
a 16 130
a 16 110
a 16 463
a 16 29
a 16 273
a 16 274
a 16 366
a 16 30
a 16 464
a 16 275
a 16 276
a 16 168
a 16 31
a 16 169
a 16 277
a 16 325
a 16 409
a 16 410
a 16 326
a 16 327
a 16 328
a 16 278
a 16 368
a 16 279
a 16 329
a 16 369
a 16 411
a 16 384
a 16 412
a 16 413
a 16 414
a 16 280
a 16 281
a 16 282
a 16 330
a 16 371
a 16 283
a 16 415
a 16 32
a 16 33
a 16 284
a 16 416
a 16 417
a 16 418
a 16 170
a 16 393
a 16 465
a 16 285
a 16 466
a 16 372
a 16 286
a 16 287
a 16 288
a 16 289
a 16 290
a 16 331
a 16 467
a 16 419
a 16 373
a 16 420
a 16 421
a 16 422
a 16 468
a 16 469
a 16 423
a 16 35
a 16 291
a 16 292
a 16 424
a 16 293
a 16 294
a 16 295
a 16 296
a 16 297
a 16 36
a 16 470
a 16 425
a 16 37
a 16 171
a 16 298
a 16 426
a 16 299
a 16 300
a 16 172
a 16 301
a 16 302
a 16 303
a 16 304
a 16 471
a 16 472
a 16 305
a 16 173
a 16 306
a 16 307
a 16 427
a 16 144
a 16 394
a 16 374
a 16 174
a 16 428
a 16 429
a 16 175
a 16 375
a 16 176
a 16 430
a 16 431
a 16 308
a 16 473
a 16 177
a 16 178
a 16 474
a 16 475
a 16 432
a 16 39
a 16 376
a 16 433
a 16 309
a 16 40
a 16 45
a 16 180
a 16 434
a 16 435
a 16 182
a 16 312
a 16 116
a 16 183
a 16 396
a 16 385
a 16 313
a 16 476
a 16 436
a 17 2
a 17 5
a 17 3
a 17 4
a 17 117
a 17 1
a 17 100
a 17 131
a 17 118
a 17 119
a 17 145
a 17 120
a 17 146
a 17 132
a 17 121
a 17 147
a 17 137
a 17 6
a 17 314
a 17 315
a 17 316
a 17 318
a 17 317
a 17 7
a 17 8
a 17 186
a 17 187
a 17 188
a 17 189
a 17 332
a 17 190
a 17 191
a 17 192
a 17 193
a 17 194
a 17 195
a 17 196
a 17 197
a 17 198
a 17 199
a 17 200
a 17 201
a 17 202
a 17 335
a 17 336
a 17 203
a 17 206
a 17 337
a 17 338
a 17 437
a 17 207
a 17 208
a 17 209
a 17 340
a 17 148
a 17 210
a 17 211
a 17 216
a 17 217
a 17 346
a 17 439
a 17 348
a 17 64
a 17 65
a 17 66
a 17 382
a 17 122
a 17 123
a 17 67
a 17 124
a 17 68
a 17 125
a 17 69
a 17 70
a 17 71
a 17 72
a 17 383
a 17 73
a 17 74
a 17 75
a 17 76
a 17 77
a 17 78
a 17 80
a 17 81
a 17 82
a 17 83
a 17 84
a 17 85
a 17 387
a 17 86
a 17 10
a 17 126
a 17 88
a 17 89
a 17 90
a 17 91
a 17 101
a 17 92
a 17 93
a 17 94
a 17 95
a 17 102
a 17 389
a 17 151
a 17 397
a 17 218
a 17 390
a 17 377
a 17 441
a 17 478
a 17 349
a 17 477
a 17 378
a 17 442
a 17 11
a 17 139
a 17 103
a 17 443
a 17 444
a 17 481
a 17 219
a 17 220
a 17 350
a 17 152
a 17 446
a 17 391
a 17 221
a 17 104
a 17 222
a 17 223
a 17 225
a 17 380
a 17 12
a 17 229
a 17 447
a 17 230
a 17 398
a 17 449
a 17 399
a 17 400
a 17 450
a 17 451
a 17 140
a 17 141
a 17 142
a 17 232
a 17 233
a 17 154
a 17 155
a 17 106
a 17 156
a 17 157
a 17 158
a 17 107
a 17 234
a 17 14
a 17 15
a 17 403
a 17 134
a 17 484
a 17 16
a 17 159
a 17 404
a 17 160
a 17 405
a 17 452
a 17 453
a 17 454
a 17 345
a 17 149
a 17 79
a 17 138
a 17 150
a 17 386
a 17 379
a 17 228
a 17 105
a 17 133
a 17 18
a 17 19
a 17 319
a 17 96
a 17 235
a 17 455
a 17 20
a 17 236
a 17 237
a 17 238
a 17 239
a 17 97
a 17 108
a 17 98
a 17 320
a 17 143
a 17 240
a 17 21
a 17 22
a 17 485
a 17 127
a 17 128
a 17 23
a 17 161
a 17 162
a 17 163
a 17 164
a 17 109
a 17 244
a 17 246
a 17 165
a 17 166
a 17 251
a 17 253
a 17 24
a 17 322
a 17 255
a 17 361
a 17 25
a 17 256
a 17 26
a 17 460
a 17 362
a 17 257
a 17 258
a 17 259
a 17 260
a 17 261
a 17 262
a 17 263
a 17 264
a 17 406
a 17 265
a 17 323
a 17 363
a 17 129
a 17 324
a 17 267
a 17 27
a 17 269
a 17 271
a 17 130
a 17 110
a 17 28
a 17 274
a 17 366
a 17 30
a 17 275
a 17 367
a 17 167
a 17 168
a 17 277
a 17 325
a 17 409
a 17 326
a 17 327
a 17 328
a 17 279
a 17 329
a 17 411
a 17 280
a 17 281
a 17 282
a 17 330
a 17 283
a 17 32
a 17 34
a 17 284
a 17 393
a 17 285
a 17 287
a 17 288
a 17 289
a 17 290
a 17 331
a 17 467
a 17 422
a 17 35
a 17 292
a 17 111
a 17 296
a 17 297
a 17 36
a 17 37
a 17 38
a 17 172
a 17 304
a 17 307
a 17 144
a 17 394
a 17 174
a 17 429
a 17 112
a 17 175
a 17 176
a 17 135
a 17 177
a 17 178
a 17 179
a 17 136
a 17 309
a 17 40
a 17 41
a 17 113
a 17 42
a 17 43
a 17 44
a 17 45
a 17 180
a 17 46
a 17 114
a 17 47
a 17 48
a 17 49
a 17 115
a 17 50
a 17 51
a 17 52
a 17 53
a 17 54
a 17 55
a 17 181
a 17 56
a 17 57
a 17 58
a 17 59
a 17 60
a 17 311
a 17 99
a 17 183
a 17 61
a 17 62
a 17 184
a 17 63
a 17 185
a 17 351
a 17 352
a 17 241
a 17 242
a 17 353
a 17 392
a 17 456
a 17 243
a 17 457
a 17 458
a 17 245
a 17 354
a 17 355
a 17 356
a 17 357
a 17 358
a 17 247
a 17 248
a 17 249
a 17 250
a 17 359
a 17 321
a 17 252
a 17 254
a 17 360
a 17 479
a 17 480
a 17 266
a 17 461
a 17 364
a 17 365
a 17 407
a 17 268
a 17 408
a 17 462
a 17 270
a 17 272
a 17 463
a 17 273
a 17 464
a 17 276
a 17 31
a 17 169
a 17 410
a 17 278
a 17 368
a 17 384
a 17 412
a 17 413
a 17 414
a 17 370
a 17 371
a 17 415
a 17 33
a 17 416
a 17 170
a 17 466
a 17 372
a 17 286
a 17 419
a 17 373
a 17 420
a 17 421
a 17 468
a 17 423
a 17 291
a 17 424
a 17 293
a 17 294
a 17 295
a 17 470
a 17 425
a 17 171
a 17 298
a 17 426
a 17 299
a 17 300
a 17 301
a 17 302
a 17 303
a 17 471
a 17 472
a 17 305
a 17 173
a 17 306
a 17 428
a 17 375
a 17 430
a 17 431
a 17 308
a 17 474
a 17 432
a 17 39
a 17 376
a 17 182
a 17 312
a 17 116
a 17 436
a 19 2
a 19 5
a 19 3
a 19 4
a 19 117
a 19 1
a 19 100
a 19 131
a 19 118
a 19 119
a 19 145
a 19 120
a 19 146
a 19 132
a 19 121
a 19 147
a 19 137
a 19 6
a 19 208
a 19 438
a 19 215
a 19 64
a 19 68
a 19 71
a 19 78
a 19 221
a 19 141
a 19 142
a 19 17
a 19 18
a 19 351
a 19 314
a 19 315
a 19 316
a 19 318
a 19 317
a 19 7
a 19 8
a 19 148
a 19 74
a 19 80
a 19 83
a 19 84
a 19 85
a 19 10
a 19 88
a 19 90
a 19 91
a 19 101
a 19 93
a 19 102
a 19 152
a 19 104
a 19 140
a 19 105
a 19 154
a 19 155
a 19 106
a 19 107
a 19 134
a 19 16
a 19 319
a 19 20
a 19 236
a 19 97
a 19 108
a 19 98
a 19 320
a 19 143
a 19 240
a 19 21
a 19 22
a 19 127
a 19 128
a 19 164
a 19 109
a 19 166
a 19 24
a 19 255
a 19 25
a 19 362
a 19 257
a 19 258
a 19 259
a 19 260
a 19 261
a 19 406
a 19 129
a 19 324
a 19 130
a 19 110
a 19 275
a 19 367
a 19 167
a 19 280
a 19 281
a 19 32
a 19 34
a 19 285
a 19 467
a 19 111
a 19 307
a 19 394
a 19 429
a 19 112
a 19 135
a 19 41
a 19 113
a 19 42
a 19 43
a 19 44
a 19 45
a 19 46
a 19 114
a 19 47
a 19 48
a 19 49
a 19 115
a 19 50
a 19 51
a 19 52
a 19 53
a 19 54
a 19 55
a 19 181
a 19 56
a 19 57
a 19 58
a 19 59
a 19 60
a 19 99
a 19 183
a 19 61
a 19 62
a 19 184
a 19 63
a 19 185
a 19 237
a 19 144
a 19 310
a 19 312
a 20 2
a 20 5
a 20 3
a 20 4
a 20 117
a 20 1
a 20 100
a 20 131
a 20 118
a 20 119
a 20 120
a 20 146
a 20 121
a 20 147
a 20 137
a 20 6
a 20 316
a 20 318
a 20 317
a 20 7
a 20 8
a 20 186
a 20 187
a 20 188
a 20 189
a 20 332
a 20 190
a 20 191
a 20 192
a 20 193
a 20 194
a 20 195
a 20 196
a 20 333
a 20 197
a 20 198
a 20 199
a 20 200
a 20 201
a 20 202
a 20 336
a 20 203
a 20 204
a 20 205
a 20 206
a 20 337
a 20 338
a 20 207
a 20 208
a 20 209
a 20 339
a 20 340
a 20 148
a 20 395
a 20 342
a 20 210
a 20 212
a 20 213
a 20 214
a 20 344
a 20 216
a 20 217
a 20 348
a 20 64
a 20 65
a 20 66
a 20 382
a 20 122
a 20 123
a 20 67
a 20 124
a 20 68
a 20 125
a 20 69
a 20 70
a 20 71
a 20 72
a 20 383
a 20 73
a 20 74
a 20 75
a 20 76
a 20 77
a 20 78
a 20 80
a 20 81
a 20 82
a 20 83
a 20 84
a 20 85
a 20 387
a 20 86
a 20 138
a 20 126
a 20 88
a 20 101
a 20 92
a 20 93
a 20 94
a 20 95
a 20 151
a 20 397
a 20 218
a 20 377
a 20 349
a 20 477
a 20 378
a 20 442
a 20 139
a 20 103
a 20 219
a 20 220
a 20 350
a 20 152
a 20 153
a 20 446
a 20 391
a 20 221
a 20 104
a 20 12
a 20 229
a 20 398
a 20 402
a 20 140
a 20 141
a 20 142
a 20 232
a 20 233
a 20 154
a 20 106
a 20 158
a 20 107
a 20 234
a 20 134
a 20 17
a 20 18
a 20 19
a 20 319
a 20 96
a 20 235
a 20 352
a 20 455
a 20 132
a 20 314
a 20 346
a 20 10
a 20 89
a 20 90
a 20 91
a 20 102
a 20 441
a 20 386
a 20 13
a 20 105
a 20 155
a 20 14
a 20 133
a 20 16
a 20 159
a 20 236
a 20 237
a 20 97
a 20 108
a 20 98
a 20 320
a 20 143
a 20 240
a 20 21
a 20 22
a 20 127
a 20 128
a 20 164
a 20 109
a 20 244
a 20 166
a 20 251
a 20 24
a 20 254
a 20 255
a 20 361
a 20 256
a 20 26
a 20 460
a 20 362
a 20 257
a 20 258
a 20 259
a 20 260
a 20 261
a 20 263
a 20 264
a 20 406
a 20 265
a 20 266
a 20 323
a 20 363
a 20 461
a 20 129
a 20 324
a 20 27
a 20 271
a 20 130
a 20 110
a 20 273
a 20 30
a 20 275
a 20 367
a 20 167
a 20 168
a 20 278
a 20 279
a 20 280
a 20 281
a 20 282
a 20 283
a 20 415
a 20 32
a 20 34
a 20 285
a 20 287
a 20 289
a 20 290
a 20 331
a 20 467
a 20 35
a 20 291
a 20 111
a 20 296
a 20 297
a 20 38
a 20 307
a 20 394
a 20 174
a 20 428
a 20 429
a 20 112
a 20 175
a 20 176
a 20 135
a 20 177
a 20 179
a 20 136
a 20 40
a 20 41
a 20 113
a 20 42
a 20 43
a 20 44
a 20 45
a 20 46
a 20 114
a 20 47
a 20 48
a 20 49
a 20 115
a 20 50
a 20 51
a 20 52
a 20 53
a 20 54
a 20 55
a 20 181
a 20 56
a 20 57
a 20 58
a 20 59
a 20 60
a 20 99
a 20 183
a 20 61
a 20 396
a 20 62
a 20 184
a 20 63
a 20 185
a 20 238
a 20 239
a 20 241
a 20 23
a 20 392
a 20 456
a 20 354
a 20 355
a 20 356
a 20 357
a 20 358
a 20 165
a 20 248
a 20 249
a 20 250
a 20 359
a 20 253
a 20 360
a 20 25
a 20 480
a 20 262
a 20 364
a 20 365
a 20 407
a 20 269
a 20 272
a 20 274
a 20 366
a 20 464
a 20 169
a 20 326
a 20 368
a 20 329
a 20 369
a 20 411
a 20 384
a 20 414
a 20 370
a 20 330
a 20 371
a 20 33
a 20 284
a 20 416
a 20 170
a 20 372
a 20 286
a 20 288
a 20 419
a 20 373
a 20 420
a 20 421
a 20 422
a 20 468
a 20 423
a 20 292
a 20 293
a 20 294
a 20 295
a 20 37
a 20 171
a 20 299
a 20 301
a 20 302
a 20 305
a 20 306
a 20 144
a 20 430
a 20 474
a 20 180
a 20 434
a 20 435
a 20 311
a 20 182
a 20 312
a 20 116
a 20 313
a 20 436
a 97 2
a 97 5
a 97 3
a 97 4
a 97 137
a 97 6
a 97 64
a 97 68
a 97 70
a 97 71
a 97 73
a 97 74
a 97 75
a 97 76
a 97 77
a 97 78
a 97 81
a 97 82
a 97 83
a 97 387
a 97 10
a 97 88
a 97 89
a 97 94
a 97 95
a 97 232
a 97 17
a 97 18
a 97 19
a 97 96
a 97 20
a 97 1
a 97 100
a 97 119
a 97 145
a 97 132
a 97 121
a 97 147
a 97 314
a 97 316
a 97 318
a 97 317
a 97 7
a 97 8
a 97 148
a 97 149
a 97 65
a 97 66
a 97 382
a 97 67
a 97 80
a 97 84
a 97 85
a 97 138
a 97 126
a 97 90
a 97 91
a 97 101
a 97 102
a 97 150
a 97 151
a 97 397
a 97 390
a 97 441
a 97 477
a 97 378
a 97 139
a 97 219
a 97 220
a 97 386
a 97 391
a 97 221
a 97 104
a 97 225
a 97 381
a 97 12
a 97 140
a 97 141
a 97 142
a 97 105
a 97 154
a 97 155
a 97 106
a 97 157
a 97 158
a 97 107
a 97 14
a 97 15
a 97 133
a 97 134
a 97 16
a 97 159
a 97 160
a 97 455
a 97 236
a 97 108
a 97 98
a 97 320
a 97 143
a 97 240
a 97 21
a 97 22
a 97 127
a 97 128
a 97 23
a 97 161
a 97 162
a 97 163
a 97 164
a 97 109
a 97 165
a 97 166
a 97 252
a 97 253
a 97 24
a 97 255
a 97 256
a 97 362
a 97 257
a 97 258
a 97 259
a 97 261
a 97 264
a 97 406
a 97 266
a 97 129
a 97 324
a 97 271
a 97 130
a 97 110
a 97 28
a 97 273
a 97 274
a 97 366
a 97 275
a 97 367
a 97 167
a 97 279
a 97 280
a 97 281
a 97 283
a 97 32
a 97 34
a 97 285
a 97 289
a 97 467
a 97 422
a 97 35
a 97 111
a 97 295
a 97 297
a 97 36
a 97 425
a 97 37
a 97 38
a 97 307
a 97 144
a 97 394
a 97 174
a 97 429
a 97 112
a 97 175
a 97 176
a 97 135
a 97 177
a 97 178
a 97 179
a 97 136
a 97 39
a 97 40
a 97 41
a 97 113
a 97 42
a 97 43
a 97 44
a 97 45
a 97 180
a 97 46
a 97 114
a 97 47
a 97 48
a 97 49
a 97 115
a 97 50
a 97 51
a 97 52
a 97 53
a 97 54
a 97 55
a 97 181
a 97 56
a 97 57
a 97 58
a 97 59
a 97 60
a 97 311
a 97 99
a 97 183
a 97 61
a 97 396
a 97 62
a 97 184
a 97 63
a 97 185
a 97 306
a 97 182
a 97 312
a 97 116
a 108 2
a 108 5
a 108 6
a 108 346
a 108 149
a 108 347
a 108 348
a 108 64
a 108 65
a 108 66
a 108 382
a 108 122
a 108 123
a 108 67
a 108 124
a 108 68
a 108 125
a 108 69
a 108 70
a 108 71
a 108 72
a 108 383
a 108 73
a 108 74
a 108 75
a 108 76
a 108 77
a 108 78
a 108 79
a 108 80
a 108 81
a 108 82
a 108 83
a 108 84
a 108 85
a 108 86
a 108 87
a 108 138
a 108 10
a 108 126
a 108 88
a 108 89
a 108 90
a 108 101
a 108 92
a 108 93
a 108 94
a 108 95
a 108 102
a 108 150
a 108 388
a 108 389
a 108 154
a 108 107
a 108 17
a 108 18
a 108 19
a 108 96
a 108 235
a 108 20
a 108 236
a 108 237
a 108 97
a 108 4
a 108 100
a 108 119
a 108 132
a 108 121
a 108 137
a 108 314
a 108 316
a 108 318
a 108 317
a 108 7
a 108 8
a 108 148
a 108 91
a 108 151
a 108 397
a 108 218
a 108 349
a 108 477
a 108 378
a 108 139
a 108 103
a 108 219
a 108 386
a 108 350
a 108 483
a 108 391
a 108 104
a 108 140
a 108 141
a 108 105
a 108 232
a 108 155
a 108 106
a 108 158
a 108 14
a 108 403
a 108 133
a 108 134
a 108 16
a 108 159
a 108 319
a 108 98
a 108 320
a 108 143
a 108 240
a 108 21
a 108 22
a 108 127
a 108 128
a 108 164
a 108 109
a 108 357
a 108 358
a 108 166
a 108 251
a 108 24
a 108 255
a 108 362
a 108 258
a 108 259
a 108 260
a 108 261
a 108 406
a 108 129
a 108 324
a 108 130
a 108 110
a 108 463
a 108 275
a 108 367
a 108 167
a 108 280
a 108 281
a 108 32
a 108 34
a 108 285
a 108 35
a 108 111
a 108 38
a 108 172
a 108 307
a 108 394
a 108 112
a 108 175
a 108 176
a 108 430
a 108 308
a 108 135
a 108 177
a 108 179
a 108 136
a 108 41
a 108 113
a 108 42
a 108 43
a 108 44
a 108 45
a 108 46
a 108 114
a 108 47
a 108 48
a 108 49
a 108 115
a 108 50
a 108 51
a 108 52
a 108 53
a 108 54
a 108 55
a 108 181
a 108 56
a 108 57
a 108 58
a 108 59
a 108 60
a 108 311
a 108 99
a 108 183
a 108 61
a 108 62
a 108 184
a 108 63
a 108 185
a 108 26
a 108 461
a 108 364
a 108 365
a 108 407
a 108 267
a 108 268
a 108 27
a 108 269
a 108 408
a 108 462
a 108 270
a 108 271
a 108 272
a 108 28
a 108 29
a 108 273
a 108 274
a 108 366
a 108 30
a 108 464
a 108 279
a 108 330
a 108 291
a 108 292
a 108 294
a 108 305
a 108 144
a 108 374
a 108 182
a 108 312
a 108 116
a 108 313
a 108 436
a 21 2
a 21 5
a 21 3
a 21 4
a 21 117
a 21 1
a 21 100
a 21 131
a 21 118
a 21 119
a 21 145
a 21 120
a 21 146
a 21 132
a 21 121
a 21 147
a 21 137
a 21 6
a 21 314
a 21 315
a 21 316
a 21 318
a 21 317
a 21 7
a 21 8
a 21 186
a 21 187
a 21 188
a 21 189
a 21 332
a 21 190
a 21 191
a 21 192
a 21 193
a 21 194
a 21 195
a 21 196
a 21 333
a 21 197
a 21 198
a 21 199
a 21 200
a 21 334
a 21 201
a 21 202
a 21 335
a 21 336
a 21 203
a 21 204
a 21 205
a 21 206
a 21 337
a 21 338
a 21 437
a 21 207
a 21 208
a 21 209
a 21 339
a 21 340
a 21 148
a 21 341
a 21 9
a 21 395
a 21 342
a 21 438
a 21 210
a 21 211
a 21 212
a 21 213
a 21 343
a 21 214
a 21 215
a 21 344
a 21 216
a 21 345
a 21 217
a 21 346
a 21 439
a 21 149
a 21 347
a 21 348
a 21 64
a 21 65
a 21 66
a 21 382
a 21 122
a 21 123
a 21 67
a 21 124
a 21 68
a 21 125
a 21 69
a 21 70
a 21 71
a 21 72
a 21 383
a 21 73
a 21 74
a 21 75
a 21 76
a 21 77
a 21 78
a 21 79
a 21 80
a 21 81
a 21 82
a 21 83
a 21 84
a 21 85
a 21 387
a 21 86
a 21 87
a 21 138
a 21 10
a 21 126
a 21 88
a 21 89
a 21 90
a 21 91
a 21 101
a 21 92
a 21 93
a 21 440
a 21 94
a 21 95
a 21 102
a 21 150
a 21 388
a 21 389
a 21 151
a 21 397
a 21 218
a 21 390
a 21 377
a 21 441
a 21 478
a 21 349
a 21 477
a 21 378
a 21 442
a 21 11
a 21 139
a 21 103
a 21 443
a 21 444
a 21 482
a 21 219
a 21 220
a 21 386
a 21 350
a 21 152
a 21 153
a 21 445
a 21 446
a 21 483
a 21 391
a 21 221
a 21 104
a 21 222
a 21 379
a 21 223
a 21 224
a 21 225
a 21 226
a 21 227
a 21 380
a 21 228
a 21 381
a 21 12
a 21 13
a 21 229
a 21 447
a 21 448
a 21 230
a 21 398
a 21 231
a 21 449
a 21 399
a 21 400
a 21 401
a 21 402
a 21 450
a 21 451
a 21 140
a 21 141
a 21 142
a 21 105
a 21 232
a 21 233
a 21 154
a 21 155
a 21 106
a 21 156
a 21 157
a 21 158
a 21 107
a 21 234
a 21 14
a 21 15
a 21 403
a 21 133
a 21 134
a 21 484
a 21 16
a 21 159
a 21 404
a 21 160
a 21 405
a 21 452
a 21 453
a 21 17
a 21 18
a 21 19
a 21 319
a 21 96
a 21 235
a 21 352
a 21 455
a 21 20
a 21 236
a 21 237
a 21 238
a 21 239
a 21 97
a 21 108
a 21 98
a 21 320
a 21 143
a 21 240
a 21 241
a 21 22
a 21 128
a 21 23
a 21 161
a 21 162
a 21 163
a 21 164
a 21 109
a 21 244
a 21 165
a 21 166
a 21 253
a 21 24
a 21 255
a 21 25
a 21 480
a 21 362
a 21 258
a 21 260
a 21 261
a 21 406
a 21 129
a 21 324
a 21 27
a 21 110
a 21 28
a 21 273
a 21 275
a 21 167
a 21 168
a 21 277
a 21 409
a 21 410
a 21 328
a 21 279
a 21 280
a 21 281
a 21 282
a 21 283
a 21 32
a 21 34
a 21 286
a 21 287
a 21 289
a 21 331
a 21 422
a 21 35
a 21 291
a 21 292
a 21 111
a 21 294
a 21 36
a 21 37
a 21 38
a 21 172
a 21 307
a 21 394
a 21 174
a 21 429
a 21 112
a 21 175
a 21 176
a 21 135
a 21 177
a 21 178
a 21 179
a 21 136
a 21 309
a 21 40
a 21 41
a 21 113
a 21 42
a 21 43
a 21 44
a 21 45
a 21 180
a 21 46
a 21 114
a 21 47
a 21 48
a 21 49
a 21 115
a 21 50
a 21 51
a 21 52
a 21 53
a 21 54
a 21 55
a 21 181
a 21 56
a 21 57
a 21 58
a 21 59
a 21 60
a 21 311
a 21 99
a 21 183
a 21 61
a 21 62
a 21 184
a 21 63
a 21 242
a 21 353
a 21 485
a 21 127
a 21 392
a 21 456
a 21 243
a 21 457
a 21 458
a 21 459
a 21 245
a 21 354
a 21 246
a 21 355
a 21 356
a 21 357
a 21 358
a 21 247
a 21 248
a 21 249
a 21 250
a 21 359
a 21 321
a 21 251
a 21 252
a 21 254
a 21 360
a 21 322
a 21 361
a 21 479
a 21 256
a 21 26
a 21 460
a 21 257
a 21 259
a 21 262
a 21 263
a 21 264
a 21 265
a 21 266
a 21 323
a 21 363
a 21 461
a 21 364
a 21 365
a 21 407
a 21 267
a 21 268
a 21 269
a 21 408
a 21 462
a 21 270
a 21 271
a 21 272
a 21 130
a 21 463
a 21 29
a 21 274
a 21 366
a 21 30
a 21 464
a 21 367
a 21 276
a 21 31
a 21 169
a 21 325
a 21 326
a 21 327
a 21 278
a 21 368
a 21 329
a 21 369
a 21 411
a 21 384
a 21 412
a 21 413
a 21 414
a 21 370
a 21 330
a 21 371
a 21 415
a 21 33
a 21 284
a 21 416
a 21 417
a 21 418
a 21 170
a 21 393
a 21 465
a 21 285
a 21 466
a 21 372
a 21 288
a 21 290
a 21 467
a 21 419
a 21 373
a 21 420
a 21 421
a 21 468
a 21 469
a 21 423
a 21 424
a 21 293
a 21 295
a 21 296
a 21 297
a 21 470
a 21 425
a 21 171
a 21 298
a 21 426
a 21 299
a 21 300
a 21 301
a 21 302
a 21 303
a 21 304
a 21 471
a 21 472
a 21 305
a 21 173
a 21 306
a 21 427
a 21 144
a 21 374
a 21 428
a 21 375
a 21 430
a 21 431
a 21 308
a 21 473
a 21 474
a 21 475
a 21 432
a 21 39
a 21 376
a 21 433
a 21 434
a 21 435
a 21 182
a 21 312
a 21 116
a 21 396
a 21 385
a 21 313
a 21 476
a 21 436
a 22 2
a 22 5
a 22 3
a 22 4
a 22 117
a 22 1
a 22 100
a 22 131
a 22 118
a 22 119
a 22 145
a 22 120
a 22 146
a 22 132
a 22 121
a 22 147
a 22 137
a 22 6
a 22 314
a 22 315
a 22 316
a 22 318
a 22 317
a 22 7
a 22 8
a 22 186
a 22 187
a 22 188
a 22 189
a 22 332
a 22 190
a 22 191
a 22 192
a 22 193
a 22 194
a 22 195
a 22 196
a 22 333
a 22 197
a 22 198
a 22 199
a 22 200
a 22 334
a 22 201
a 22 202
a 22 335
a 22 336
a 22 203
a 22 204
a 22 205
a 22 206
a 22 337
a 22 338
a 22 437
a 22 207
a 22 208
a 22 209
a 22 339
a 22 340
a 22 148
a 22 341
a 22 9
a 22 395
a 22 342
a 22 438
a 22 210
a 22 211
a 22 212
a 22 213
a 22 343
a 22 214
a 22 215
a 22 344
a 22 216
a 22 345
a 22 217
a 22 346
a 22 439
a 22 149
a 22 347
a 22 348
a 22 64
a 22 65
a 22 66
a 22 382
a 22 122
a 22 123
a 22 67
a 22 124
a 22 68
a 22 125
a 22 69
a 22 70
a 22 71
a 22 72
a 22 383
a 22 73
a 22 74
a 22 75
a 22 76
a 22 77
a 22 78
a 22 79
a 22 80
a 22 81
a 22 82
a 22 83
a 22 84
a 22 85
a 22 387
a 22 86
a 22 138
a 22 10
a 22 126
a 22 88
a 22 89
a 22 90
a 22 101
a 22 92
a 22 93
a 22 440
a 22 94
a 22 95
a 22 102
a 22 150
a 22 389
a 22 151
a 22 397
a 22 218
a 22 377
a 22 378
a 22 443
a 22 444
a 22 219
a 22 220
a 22 386
a 22 350
a 22 153
a 22 445
a 22 446
a 22 391
a 22 221
a 22 104
a 22 222
a 22 223
a 22 224
a 22 225
a 22 226
a 22 227
a 22 380
a 22 228
a 22 12
a 22 13
a 22 229
a 22 448
a 22 230
a 22 398
a 22 231
a 22 449
a 22 399
a 22 400
a 22 401
a 22 402
a 22 450
a 22 451
a 22 141
a 22 142
a 22 105
a 22 232
a 22 154
a 22 155
a 22 158
a 22 107
a 22 234
a 22 14
a 22 15
a 22 403
a 22 133
a 22 134
a 22 16
a 22 159
a 22 404
a 22 160
a 22 405
a 22 452
a 22 17
a 22 18
a 22 19
a 22 96
a 22 235
a 22 352
a 22 20
a 22 236
a 22 239
a 22 97
a 22 108
a 22 98
a 22 143
a 22 240
a 22 21
a 22 241
a 22 242
a 22 442
a 22 106
a 22 455
a 22 237
a 22 485
a 22 127
a 22 128
a 22 161
a 22 162
a 22 163
a 22 164
a 22 253
a 22 255
a 22 256
a 22 460
a 22 259
a 22 271
a 22 110
a 22 273
a 22 167
a 22 280
a 22 281
a 22 32
a 22 34
a 22 35
a 22 111
a 22 38
a 22 172
a 22 307
a 22 394
a 22 174
a 22 429
a 22 112
a 22 175
a 22 176
a 22 135
a 22 177
a 22 178
a 22 179
a 22 136
a 22 41
a 22 113
a 22 42
a 22 43
a 22 44
a 22 45
a 22 46
a 22 114
a 22 47
a 22 48
a 22 49
a 22 115
a 22 50
a 22 51
a 22 52
a 22 53
a 22 54
a 22 55
a 22 181
a 22 56
a 22 57
a 22 58
a 22 59
a 22 60
a 22 99
a 22 183
a 22 61
a 22 62
a 22 184
a 22 63
a 22 185
a 22 23
a 22 392
a 22 243
a 22 459
a 22 109
a 22 244
a 22 245
a 22 246
a 22 355
a 22 248
a 22 249
a 22 250
a 22 166
a 22 359
a 22 321
a 22 251
a 22 252
a 22 24
a 22 254
a 22 26
a 22 257
a 22 260
a 22 263
a 22 264
a 22 406
a 22 265
a 22 266
a 22 363
a 22 129
a 22 324
a 22 364
a 22 365
a 22 407
a 22 267
a 22 268
a 22 27
a 22 269
a 22 408
a 22 462
a 22 270
a 22 272
a 22 463
a 22 28
a 22 29
a 22 274
a 22 366
a 22 30
a 22 464
a 22 275
a 22 276
a 22 168
a 22 31
a 22 169
a 22 277
a 22 325
a 22 409
a 22 326
a 22 327
a 22 328
a 22 278
a 22 368
a 22 279
a 22 329
a 22 411
a 22 384
a 22 412
a 22 413
a 22 414
a 22 370
a 22 282
a 22 330
a 22 283
a 22 415
a 22 33
a 22 284
a 22 416
a 22 417
a 22 170
a 22 285
a 22 372
a 22 286
a 22 287
a 22 288
a 22 289
a 22 290
a 22 419
a 22 420
a 22 422
a 22 291
a 22 292
a 22 424
a 22 293
a 22 294
a 22 295
a 22 296
a 22 297
a 22 36
a 22 37
a 22 171
a 22 298
a 22 426
a 22 299
a 22 300
a 22 301
a 22 302
a 22 303
a 22 304
a 22 471
a 22 472
a 22 305
a 22 173
a 22 306
a 22 427
a 22 144
a 22 374
a 22 428
a 22 375
a 22 430
a 22 431
a 22 308
a 22 473
a 22 432
a 22 39
a 22 433
a 22 309
a 22 40
a 22 180
a 22 434
a 22 435
a 22 311
a 22 182
a 22 312
a 22 116
a 22 396
a 22 385
a 22 476
a 22 436
a 23 2
a 23 3
a 23 1
a 23 100
a 23 121
a 23 314
a 23 315
a 23 316
a 23 318
a 23 317
a 23 7
a 23 8
a 23 186
a 23 187
a 23 188
a 23 189
a 23 332
a 23 190
a 23 191
a 23 192
a 23 193
a 23 194
a 23 196
a 23 197
a 23 198
a 23 199
a 23 200
a 23 201
a 23 202
a 23 203
a 23 205
a 23 206
a 23 338
a 23 207
a 23 208
a 23 209
a 23 340
a 23 148
a 23 341
a 23 395
a 23 342
a 23 210
a 23 212
a 23 213
a 23 214
a 23 215
a 23 344
a 23 216
a 23 345
a 23 346
a 23 64
a 23 65
a 23 66
a 23 382
a 23 122
a 23 123
a 23 67
a 23 124
a 23 68
a 23 125
a 23 69
a 23 70
a 23 71
a 23 72
a 23 383
a 23 73
a 23 74
a 23 75
a 23 76
a 23 77
a 23 78
a 23 79
a 23 80
a 23 81
a 23 82
a 23 83
a 23 84
a 23 85
a 23 86
a 23 138
a 23 10
a 23 126
a 23 88
a 23 89
a 23 90
a 23 91
a 23 92
a 23 93
a 23 95
a 23 151
a 23 218
a 23 442
a 23 103
a 23 219
a 23 220
a 23 152
a 23 221
a 23 104
a 23 225
a 23 402
a 23 451
a 23 155
a 23 17
a 23 97
a 23 98
a 23 143
a 23 240
a 23 21
a 23 241
a 23 127
a 23 128
a 23 119
a 23 102
a 23 397
a 23 139
a 23 446
a 23 391
a 23 12
a 23 141
a 23 105
a 23 232
a 23 154
a 23 106
a 23 158
a 23 107
a 23 14
a 23 133
a 23 134
a 23 16
a 23 455
a 23 20
a 23 236
a 23 237
a 23 22
a 23 485
a 23 164
a 23 253
a 23 254
a 23 255
a 23 256
a 23 460
a 23 27
a 23 271
a 23 110
a 23 273
a 23 30
a 23 275
a 23 167
a 23 168
a 23 279
a 23 280
a 23 281
a 23 282
a 23 283
a 23 32
a 23 34
a 23 289
a 23 291
a 23 111
a 23 38
a 23 394
a 23 429
a 23 112
a 23 135
a 23 41
a 23 113
a 23 42
a 23 43
a 23 44
a 23 46
a 23 114
a 23 47
a 23 48
a 23 49
a 23 115
a 23 50
a 23 51
a 23 52
a 23 53
a 23 54
a 23 55
a 23 181
a 23 56
a 23 57
a 23 58
a 23 59
a 23 60
a 23 99
a 23 183
a 23 61
a 23 396
a 23 62
a 23 63
a 23 185
a 23 244
a 23 248
a 23 249
a 23 250
a 23 359
a 23 251
a 23 24
a 23 26
a 23 257
a 23 260
a 23 261
a 23 263
a 23 264
a 23 406
a 23 265
a 23 266
a 23 407
a 23 267
a 23 268
a 23 269
a 23 408
a 23 272
a 23 367
a 23 276
a 23 31
a 23 169
a 23 277
a 23 325
a 23 409
a 23 410
a 23 326
a 23 327
a 23 328
a 23 278
a 23 384
a 23 412
a 23 413
a 23 414
a 23 370
a 23 330
a 23 33
a 23 170
a 23 393
a 23 465
a 23 285
a 23 466
a 23 372
a 23 373
a 23 420
a 23 421
a 23 468
a 23 469
a 23 423
a 23 292
a 23 296
a 23 297
a 23 37
a 23 171
a 23 298
a 23 426
a 23 299
a 23 302
a 23 303
a 23 304
a 23 173
a 23 307
a 23 144
a 23 180
a 23 434
a 23 310
a 23 435
a 23 182
a 109 2
a 109 64
a 109 65
a 109 382
a 109 122
a 109 123
a 109 67
a 109 124
a 109 68
a 109 125
a 109 69
a 109 70
a 109 71
a 109 72
a 109 73
a 109 74
a 109 75
a 109 76
a 109 77
a 109 78
a 109 79
a 109 81
a 109 82
a 109 83
a 109 84
a 109 85
a 109 387
a 109 86
a 109 87
a 109 138
a 109 10
a 109 126
a 109 88
a 109 89
a 109 90
a 109 91
a 109 101
a 109 92
a 109 93
a 109 94
a 109 95
a 109 151
a 109 350
a 109 451
a 109 232
a 109 17
a 109 19
a 109 20
a 109 97
a 109 108
a 109 98
a 109 320
a 109 143
a 109 240
a 109 21
a 109 128
a 109 164
a 109 119
a 109 6
a 109 7
a 109 148
a 109 102
a 109 220
a 109 104
a 109 379
a 109 228
a 109 13
a 109 105
a 109 154
a 109 155
a 109 106
a 109 107
a 109 14
a 109 133
a 109 134
a 109 16
a 109 159
a 109 22
a 109 166
a 109 251
a 109 24
a 109 322
a 109 255
a 109 25
a 109 460
a 109 130
a 109 28
a 109 167
a 109 279
a 109 280
a 109 32
a 109 34
a 109 35
a 109 111
a 109 38
a 109 307
a 109 394
a 109 429
a 109 112
a 109 135
a 109 179
a 109 136
a 109 40
a 109 41
a 109 113
a 109 42
a 109 43
a 109 44
a 109 45
a 109 46
a 109 114
a 109 47
a 109 48
a 109 49
a 109 115
a 109 50
a 109 51
a 109 52
a 109 53
a 109 54
a 109 55
a 109 181
a 109 56
a 109 57
a 109 58
a 109 59
a 109 60
a 109 311
a 109 99
a 109 183
a 109 61
a 109 62
a 109 184
a 109 63
a 109 185
a 109 129
a 109 273
a 109 306
a 109 144
a 109 182
a 109 312
a 109 116
a 25 2
a 25 5
a 25 3
a 25 4
a 25 117
a 25 1
a 25 100
a 25 118
a 25 146
a 25 121
a 25 147
a 25 6
a 25 186
a 25 187
a 25 188
a 25 189
a 25 332
a 25 190
a 25 191
a 25 192
a 25 193
a 25 194
a 25 195
a 25 196
a 25 333
a 25 197
a 25 198
a 25 200
a 25 334
a 25 201
a 25 202
a 25 203
a 25 204
a 25 205
a 25 206
a 25 337
a 25 207
a 25 208
a 25 209
a 25 339
a 25 340
a 25 148
a 25 341
a 25 9
a 25 395
a 25 342
a 25 438
a 25 212
a 25 213
a 25 214
a 25 215
a 25 345
a 25 64
a 25 65
a 25 66
a 25 382
a 25 122
a 25 123
a 25 67
a 25 124
a 25 68
a 25 70
a 25 71
a 25 72
a 25 383
a 25 79
a 25 80
a 25 81
a 25 82
a 25 83
a 25 84
a 25 85
a 25 387
a 25 86
a 25 138
a 25 10
a 25 126
a 25 88
a 25 90
a 25 101
a 25 92
a 25 93
a 25 94
a 25 95
a 25 102
a 25 150
a 25 388
a 25 389
a 25 151
a 25 397
a 25 218
a 25 390
a 25 377
a 25 441
a 25 349
a 25 477
a 25 378
a 25 442
a 25 11
a 25 139
a 25 103
a 25 443
a 25 444
a 25 482
a 25 219
a 25 220
a 25 386
a 25 350
a 25 152
a 25 153
a 25 445
a 25 446
a 25 391
a 25 221
a 25 104
a 25 223
a 25 224
a 25 225
a 25 226
a 25 227
a 25 228
a 25 12
a 25 13
a 25 229
a 25 447
a 25 448
a 25 230
a 25 231
a 25 449
a 25 399
a 25 401
a 25 450
a 25 451
a 25 141
a 25 105
a 25 106
a 25 156
a 25 107
a 25 14
a 25 15
a 25 403
a 25 133
a 25 134
a 25 16
a 25 159
a 25 404
a 25 17
a 25 19
a 25 319
a 25 96
a 25 352
a 25 21
a 25 241
a 25 242
a 25 456
a 25 243
a 25 161
a 25 459
a 25 162
a 25 164
a 25 109
a 25 354
a 25 356
a 25 247
a 25 165
a 25 253
a 25 255
a 25 314
a 25 316
a 25 318
a 25 7
a 25 8
a 25 402
a 25 20
a 25 240
a 25 128
a 25 166
a 25 251
a 25 24
a 25 361
a 25 479
a 25 256
a 25 460
a 25 257
a 25 258
a 25 259
a 25 260
a 25 261
a 25 262
a 25 264
a 25 265
a 25 462
a 25 271
a 25 110
a 25 274
a 25 366
a 25 30
a 25 275
a 25 167
a 25 328
a 25 279
a 25 411
a 25 281
a 25 282
a 25 330
a 25 283
a 25 415
a 25 32
a 25 34
a 25 284
a 25 417
a 25 287
a 25 289
a 25 290
a 25 331
a 25 467
a 25 35
a 25 304
a 25 306
a 25 307
a 25 394
a 25 174
a 25 41
a 25 113
a 25 42
a 25 43
a 25 44
a 25 46
a 25 114
a 25 47
a 25 48
a 25 49
a 25 115
a 25 50
a 25 51
a 25 52
a 25 53
a 25 54
a 25 55
a 25 181
a 25 56
a 25 57
a 25 58
a 25 59
a 25 60
a 25 183
a 25 61
a 25 62
a 25 184
a 25 63
a 25 185
a 25 26
a 25 362
a 25 263
a 25 266
a 25 323
a 25 363
a 25 461
a 25 129
a 25 364
a 25 365
a 25 407
a 25 267
a 25 268
a 25 408
a 25 270
a 25 272
a 25 463
a 25 28
a 25 273
a 25 464
a 25 367
a 25 31
a 25 277
a 25 329
a 25 416
a 25 418
a 25 170
a 25 465
a 25 285
a 25 466
a 25 372
a 25 422
a 25 468
a 25 111
a 25 424
a 25 293
a 25 294
a 25 296
a 25 297
a 25 470
a 25 38
a 25 172
a 25 301
a 25 302
a 25 471
a 25 305
a 25 144
a 25 112
a 25 375
a 25 176
a 25 430
a 25 431
a 25 177
a 25 178
a 25 179
a 25 136
a 25 474
a 25 475
a 25 376
a 25 433
a 25 309
a 25 40
a 25 434
a 25 182
a 25 312
a 25 396
a 26 2
a 26 5
a 26 3
a 26 117
a 26 1
a 26 100
a 26 118
a 26 119
a 26 120
a 26 121
a 26 147
a 26 314
a 26 315
a 26 7
a 26 8
a 26 217
a 26 346
a 26 439
a 26 149
a 26 348
a 26 68
a 26 153
a 26 391
a 26 221
a 26 104
a 26 229
a 26 398
a 26 399
a 26 400
a 26 17
a 26 20
a 26 127
a 26 128
a 26 164
a 26 245
a 26 355
a 26 166
a 26 359
a 26 251
a 26 252
a 26 24
a 26 255
a 26 256
a 26 6
a 26 316
a 26 318
a 26 148
a 26 84
a 26 10
a 26 102
a 26 377
a 26 220
a 26 446
a 26 225
a 26 380
a 26 228
a 26 12
a 26 13
a 26 402
a 26 105
a 26 232
a 26 106
a 26 156
a 26 107
a 26 133
a 26 16
a 26 236
a 26 108
a 26 240
a 26 21
a 26 22
a 26 23
a 26 247
a 26 253
a 26 361
a 26 25
a 26 479
a 26 460
a 26 257
a 26 258
a 26 259
a 26 260
a 26 261
a 26 262
a 26 263
a 26 264
a 26 406
a 26 265
a 26 266
a 26 323
a 26 363
a 26 461
a 26 324
a 26 364
a 26 267
a 26 268
a 26 27
a 26 269
a 26 462
a 26 271
a 26 272
a 26 110
a 26 28
a 26 273
a 26 274
a 26 366
a 26 30
a 26 464
a 26 275
a 26 167
a 26 168
a 26 31
a 26 169
a 26 277
a 26 409
a 26 327
a 26 328
a 26 278
a 26 368
a 26 279
a 26 329
a 26 369
a 26 411
a 26 280
a 26 281
a 26 282
a 26 330
a 26 371
a 26 283
a 26 415
a 26 32
a 26 33
a 26 34
a 26 284
a 26 285
a 26 287
a 26 288
a 26 289
a 26 290
a 26 331
a 26 467
a 26 419
a 26 35
a 26 291
a 26 292
a 26 111
a 26 296
a 26 297
a 26 36
a 26 37
a 26 171
a 26 298
a 26 299
a 26 38
a 26 304
a 26 306
a 26 307
a 26 427
a 26 394
a 26 429
a 26 112
a 26 136
a 26 39
a 26 41
a 26 113
a 26 42
a 26 43
a 26 44
a 26 45
a 26 46
a 26 114
a 26 47
a 26 48
a 26 49
a 26 115
a 26 50
a 26 51
a 26 52
a 26 53
a 26 54
a 26 55
a 26 181
a 26 56
a 26 57
a 26 58
a 26 59
a 26 60
a 26 99
a 26 183
a 26 61
a 26 62
a 26 184
a 26 63
a 26 185
a 26 365
a 26 407
a 26 463
a 26 29
a 26 276
a 26 325
a 26 410
a 26 326
a 26 384
a 26 412
a 26 413
a 26 414
a 26 370
a 26 416
a 26 418
a 26 170
a 26 466
a 26 372
a 26 286
a 26 373
a 26 420
a 26 421
a 26 468
a 26 423
a 26 294
a 26 426
a 26 300
a 26 172
a 26 301
a 26 302
a 26 303
a 26 471
a 26 472
a 26 305
a 26 173
a 26 144
a 26 428
a 26 308
a 26 135
a 26 40
a 26 436
a 27 2
a 27 5
a 27 3
a 27 4
a 27 117
a 27 1
a 27 100
a 27 118
a 27 119
a 27 120
a 27 146
a 27 121
a 27 147
a 27 317
a 27 7
a 27 186
a 27 187
a 27 188
a 27 189
a 27 332
a 27 190
a 27 191
a 27 192
a 27 193
a 27 194
a 27 195
a 27 196
a 27 333
a 27 197
a 27 198
a 27 199
a 27 200
a 27 201
a 27 202
a 27 335
a 27 336
a 27 203
a 27 204
a 27 206
a 27 337
a 27 207
a 27 208
a 27 209
a 27 340
a 27 148
a 27 341
a 27 9
a 27 395
a 27 342
a 27 438
a 27 210
a 27 211
a 27 212
a 27 213
a 27 343
a 27 214
a 27 215
a 27 344
a 27 216
a 27 345
a 27 346
a 27 68
a 27 398
a 27 402
a 27 17
a 27 20
a 27 98
a 27 21
a 27 128
a 27 23
a 27 251
a 27 255
a 27 256
a 27 26
a 27 461
a 27 407
a 27 267
a 27 6
a 27 314
a 27 316
a 27 318
a 27 149
a 27 64
a 27 65
a 27 66
a 27 84
a 27 138
a 27 10
a 27 102
a 27 150
a 27 139
a 27 220
a 27 386
a 27 104
a 27 222
a 27 228
a 27 12
a 27 13
a 27 105
a 27 232
a 27 233
a 27 106
a 27 158
a 27 107
a 27 14
a 27 15
a 27 133
a 27 134
a 27 16
a 27 159
a 27 319
a 27 236
a 27 108
a 27 240
a 27 22
a 27 127
a 27 161
a 27 162
a 27 164
a 27 253
a 27 254
a 27 322
a 27 361
a 27 479
a 27 460
a 27 362
a 27 257
a 27 258
a 27 259
a 27 260
a 27 261
a 27 262
a 27 263
a 27 264
a 27 406
a 27 265
a 27 266
a 27 323
a 27 363
a 27 269
a 27 271
a 27 272
a 27 110
a 27 28
a 27 29
a 27 273
a 27 274
a 27 366
a 27 30
a 27 275
a 27 167
a 27 276
a 27 168
a 27 31
a 27 277
a 27 325
a 27 409
a 27 278
a 27 368
a 27 279
a 27 329
a 27 411
a 27 384
a 27 414
a 27 280
a 27 281
a 27 282
a 27 330
a 27 371
a 27 283
a 27 415
a 27 32
a 27 33
a 27 34
a 27 285
a 27 286
a 27 287
a 27 288
a 27 289
a 27 290
a 27 331
a 27 467
a 27 422
a 27 35
a 27 292
a 27 111
a 27 294
a 27 296
a 27 297
a 27 36
a 27 37
a 27 171
a 27 299
a 27 38
a 27 172
a 27 301
a 27 304
a 27 307
a 27 427
a 27 394
a 27 174
a 27 429
a 27 112
a 27 175
a 27 176
a 27 135
a 27 177
a 27 179
a 27 136
a 27 309
a 27 40
a 27 41
a 27 113
a 27 42
a 27 43
a 27 44
a 27 45
a 27 46
a 27 114
a 27 47
a 27 48
a 27 49
a 27 115
a 27 50
a 27 51
a 27 52
a 27 53
a 27 54
a 27 55
a 27 181
a 27 56
a 27 57
a 27 58
a 27 59
a 27 60
a 27 99
a 27 183
a 27 61
a 27 62
a 27 184
a 27 63
a 27 185
a 27 270
a 27 169
a 27 326
a 27 327
a 27 328
a 27 369
a 27 412
a 27 413
a 27 370
a 27 170
a 27 466
a 27 372
a 27 419
a 27 373
a 27 469
a 27 423
a 27 298
a 27 426
a 27 302
a 27 303
a 27 472
a 27 173
a 27 144
a 27 433
a 27 436
a 110 2
a 110 6
a 110 190
a 110 191
a 110 192
a 110 193
a 110 194
a 110 195
a 110 196
a 110 333
a 110 197
a 110 198
a 110 199
a 110 200
a 110 201
a 110 207
a 110 209
a 110 217
a 110 346
a 110 439
a 110 149
a 110 347
a 110 348
a 110 65
a 110 68
a 110 378
a 110 219
a 110 220
a 110 350
a 110 153
a 110 391
a 110 221
a 110 104
a 110 223
a 110 224
a 110 225
a 110 226
a 110 228
a 110 381
a 110 12
a 110 13
a 110 229
a 110 447
a 110 448
a 110 230
a 110 398
a 110 231
a 110 449
a 110 399
a 110 400
a 110 401
a 110 402
a 110 450
a 110 451
a 110 233
a 110 154
a 110 155
a 110 158
a 110 107
a 110 403
a 110 134
a 110 159
a 110 17
a 110 19
a 110 96
a 110 352
a 110 20
a 110 236
a 110 237
a 110 239
a 110 97
a 110 108
a 110 98
a 110 143
a 110 240
a 110 21
a 110 242
a 110 22
a 110 127
a 110 128
a 110 23
a 110 243
a 110 457
a 110 161
a 110 162
a 110 163
a 110 164
a 110 356
a 110 247
a 110 252
a 110 253
a 110 255
a 110 361
a 110 25
a 110 256
a 110 26
a 110 362
a 110 257
a 110 260
a 110 261
a 110 263
a 110 264
a 110 406
a 110 265
a 110 266
a 110 323
a 110 129
a 110 324
a 110 364
a 110 365
a 110 407
a 110 267
a 110 268
a 110 27
a 110 269
a 110 408
a 110 462
a 110 270
a 110 271
a 110 272
a 110 130
a 110 119
a 110 314
a 110 316
a 110 318
a 110 8
a 110 148
a 110 64
a 110 84
a 110 10
a 110 102
a 110 151
a 110 397
a 110 11
a 110 386
a 110 446
a 110 141
a 110 142
a 110 105
a 110 232
a 110 106
a 110 14
a 110 133
a 110 16
a 110 235
a 110 392
a 110 251
a 110 254
a 110 479
a 110 460
a 110 258
a 110 259
a 110 363
a 110 461
a 110 29
a 110 273
a 110 274
a 110 366
a 110 30
a 110 275
a 110 367
a 110 167
a 110 168
a 110 169
a 110 277
a 110 278
a 110 368
a 110 279
a 110 329
a 110 384
a 110 280
a 110 281
a 110 282
a 110 330
a 110 283
a 110 32
a 110 34
a 110 284
a 110 285
a 110 287
a 110 288
a 110 289
a 110 290
a 110 467
a 110 419
a 110 373
a 110 422
a 110 35
a 110 291
a 110 292
a 110 111
a 110 293
a 110 294
a 110 296
a 110 297
a 110 171
a 110 38
a 110 301
a 110 427
a 110 394
a 110 174
a 110 429
a 110 112
a 110 135
a 110 179
a 110 136
a 110 309
a 110 40
a 110 41
a 110 113
a 110 42
a 110 43
a 110 44
a 110 46
a 110 114
a 110 47
a 110 48
a 110 49
a 110 115
a 110 50
a 110 51
a 110 52
a 110 53
a 110 54
a 110 55
a 110 181
a 110 56
a 110 57
a 110 58
a 110 59
a 110 60
a 110 99
a 110 183
a 110 61
a 110 62
a 110 184
a 110 63
a 110 185
a 110 463
a 110 28
a 110 464
a 110 276
a 110 31
a 110 325
a 110 409
a 110 326
a 110 327
a 110 328
a 110 369
a 110 411
a 110 413
a 110 370
a 110 33
a 110 416
a 110 417
a 110 418
a 110 170
a 110 393
a 110 465
a 110 372
a 110 286
a 110 420
a 110 421
a 110 468
a 110 469
a 110 423
a 110 295
a 110 36
a 110 37
a 110 298
a 110 426
a 110 299
a 110 300
a 110 172
a 110 302
a 110 303
a 110 304
a 110 471
a 110 472
a 110 173
a 110 306
a 110 307
a 110 144
a 110 428
a 110 175
a 110 176
a 110 430
a 110 431
a 110 308
a 110 473
a 110 177
a 110 178
a 110 475
a 110 432
a 110 39
a 110 311
a 110 182
a 110 312
a 110 116
a 110 396
a 110 436
a 28 2
a 28 5
a 28 3
a 28 4
a 28 117
a 28 1
a 28 100
a 28 131
a 28 118
a 28 119
a 28 145
a 28 120
a 28 146
a 28 132
a 28 121
a 28 147
a 28 137
a 28 6
a 28 314
a 28 315
a 28 318
a 28 317
a 28 7
a 28 186
a 28 187
a 28 188
a 28 189
a 28 332
a 28 190
a 28 191
a 28 193
a 28 194
a 28 195
a 28 196
a 28 333
a 28 197
a 28 198
a 28 199
a 28 200
a 28 334
a 28 201
a 28 202
a 28 335
a 28 336
a 28 203
a 28 204
a 28 205
a 28 206
a 28 337
a 28 338
a 28 437
a 28 207
a 28 208
a 28 209
a 28 339
a 28 340
a 28 148
a 28 341
a 28 9
a 28 395
a 28 342
a 28 438
a 28 210
a 28 211
a 28 212
a 28 213
a 28 343
a 28 214
a 28 215
a 28 344
a 28 216
a 28 345
a 28 64
a 28 123
a 28 68
a 28 71
a 28 72
a 28 81
a 28 88
a 28 93
a 28 95
a 28 150
a 28 151
a 28 220
a 28 350
a 28 221
a 28 104
a 28 222
a 28 379
a 28 223
a 28 224
a 28 225
a 28 226
a 28 227
a 28 380
a 28 381
a 28 12
a 28 13
a 28 229
a 28 448
a 28 230
a 28 398
a 28 231
a 28 449
a 28 400
a 28 401
a 28 402
a 28 451
a 28 141
a 28 142
a 28 105
a 28 233
a 28 106
a 28 107
a 28 234
a 28 15
a 28 403
a 28 133
a 28 134
a 28 16
a 28 404
a 28 160
a 28 17
a 28 96
a 28 97
a 28 21
a 28 241
a 28 242
a 28 128
a 28 456
a 28 243
a 28 457
a 28 458
a 28 161
a 28 459
a 28 162
a 28 163
a 28 164
a 28 109
a 28 356
a 28 247
a 28 248
a 28 249
a 28 250
a 28 166
a 28 359
a 28 321
a 28 251
a 28 252
a 28 253
a 28 255
a 28 26
a 28 257
a 28 258
a 28 259
a 28 260
a 28 261
a 28 262
a 28 263
a 28 264
a 28 406
a 28 265
a 28 129
a 28 364
a 28 365
a 28 267
a 28 268
a 28 27
a 28 269
a 28 408
a 28 463
a 28 84
a 28 10
a 28 102
a 28 139
a 28 232
a 28 154
a 28 14
a 28 159
a 28 236
a 28 108
a 28 22
a 28 127
a 28 361
a 28 25
a 28 256
a 28 460
a 28 362
a 28 266
a 28 323
a 28 363
a 28 461
a 28 271
a 28 272
a 28 110
a 28 29
a 28 273
a 28 274
a 28 275
a 28 167
a 28 168
a 28 169
a 28 278
a 28 368
a 28 279
a 28 329
a 28 281
a 28 282
a 28 371
a 28 283
a 28 415
a 28 32
a 28 33
a 28 34
a 28 288
a 28 289
a 28 290
a 28 467
a 28 292
a 28 111
a 28 37
a 28 299
a 28 38
a 28 173
a 28 394
a 28 429
a 28 112
a 28 135
a 28 179
a 28 136
a 28 309
a 28 41
a 28 113
a 28 42
a 28 43
a 28 44
a 28 46
a 28 114
a 28 47
a 28 48
a 28 49
a 28 115
a 28 50
a 28 51
a 28 52
a 28 53
a 28 54
a 28 55
a 28 181
a 28 56
a 28 57
a 28 58
a 28 59
a 28 60
a 28 99
a 28 183
a 28 61
a 28 396
a 28 62
a 28 184
a 28 63
a 28 185
a 28 367
a 28 31
a 28 369
a 28 411
a 28 412
a 28 413
a 28 370
a 28 280
a 28 330
a 28 284
a 28 418
a 28 170
a 28 285
a 28 372
a 28 286
a 28 419
a 28 291
a 28 424
a 28 293
a 28 294
a 28 295
a 28 296
a 28 297
a 28 300
a 28 301
a 28 471
a 28 305
a 28 306
a 28 307
a 28 427
a 28 144
a 28 174
a 28 175
a 28 375
a 28 176
a 28 430
a 28 308
a 28 473
a 28 178
a 28 432
a 28 376
a 28 40
a 28 180
a 29 2
a 29 5
a 29 3
a 29 1
a 29 100
a 29 121
a 29 186
a 29 187
a 29 188
a 29 189
a 29 332
a 29 190
a 29 193
a 29 194
a 29 196
a 29 197
a 29 198
a 29 199
a 29 200
a 29 201
a 29 202
a 29 203
a 29 205
a 29 340
a 29 148
a 29 395
a 29 342
a 29 212
a 29 213
a 29 214
a 29 344
a 29 216
a 29 348
a 29 65
a 29 221
a 29 104
a 29 222
a 29 379
a 29 223
a 29 224
a 29 225
a 29 226
a 29 227
a 29 380
a 29 228
a 29 381
a 29 12
a 29 13
a 29 229
a 29 447
a 29 448
a 29 230
a 29 398
a 29 231
a 29 449
a 29 400
a 29 401
a 29 402
a 29 450
a 29 451
a 29 140
a 29 141
a 29 142
a 29 164
a 29 255
a 29 257
a 29 258
a 29 259
a 29 260
a 29 261
a 29 262
a 29 263
a 29 264
a 29 406
a 29 267
a 29 268
a 29 27
a 29 269
a 29 408
a 29 462
a 29 270
a 29 271
a 29 272
a 29 110
a 29 28
a 29 10
a 29 107
a 29 16
a 29 236
a 29 108
a 29 21
a 29 22
a 29 127
a 29 128
a 29 251
a 29 253
a 29 322
a 29 256
a 29 26
a 29 460
a 29 362
a 29 265
a 29 266
a 29 323
a 29 363
a 29 274
a 29 167
a 29 168
a 29 169
a 29 409
a 29 278
a 29 279
a 29 329
a 29 282
a 29 283
a 29 34
a 29 288
a 29 289
a 29 290
a 29 292
a 29 171
a 29 394
a 29 41
a 29 113
a 29 42
a 29 44
a 29 46
a 29 114
a 29 47
a 29 48
a 29 49
a 29 50
a 29 51
a 29 52
a 29 53
a 29 54
a 29 55
a 29 181
a 29 56
a 29 57
a 29 58
a 29 59
a 29 60
a 29 61
a 29 62
a 29 63
a 29 185
a 29 30
a 29 275
a 29 276
a 29 31
a 29 277
a 29 411
a 29 413
a 29 280
a 29 33
a 29 285
a 29 372
a 29 111
a 29 293
a 29 294
a 29 299
a 29 38
a 29 300
a 29 172
a 29 301
a 29 304
a 29 305
a 29 306
a 29 307
a 29 427
a 29 112
a 29 43
a 29 183
a 29 396
a 30 2
a 30 5
a 30 3
a 30 4
a 30 117
a 30 1
a 30 100
a 30 119
a 30 120
a 30 121
a 30 137
a 30 6
a 30 314
a 30 315
a 30 316
a 30 318
a 30 7
a 30 8
a 30 186
a 30 187
a 30 188
a 30 189
a 30 332
a 30 190
a 30 191
a 30 192
a 30 193
a 30 194
a 30 195
a 30 196
a 30 333
a 30 197
a 30 198
a 30 199
a 30 200
a 30 334
a 30 201
a 30 202
a 30 335
a 30 336
a 30 203
a 30 204
a 30 205
a 30 206
a 30 337
a 30 338
a 30 207
a 30 208
a 30 209
a 30 339
a 30 340
a 30 148
a 30 341
a 30 9
a 30 395
a 30 342
a 30 438
a 30 210
a 30 211
a 30 212
a 30 213
a 30 214
a 30 215
a 30 344
a 30 216
a 30 345
a 30 217
a 30 346
a 30 149
a 30 348
a 30 68
a 30 151
a 30 349
a 30 378
a 30 139
a 30 386
a 30 350
a 30 221
a 30 104
a 30 222
a 30 379
a 30 223
a 30 225
a 30 380
a 30 228
a 30 12
a 30 13
a 30 229
a 30 447
a 30 448
a 30 230
a 30 398
a 30 231
a 30 449
a 30 399
a 30 400
a 30 401
a 30 402
a 30 451
a 30 140
a 30 141
a 30 142
a 30 233
a 30 154
a 30 106
a 30 107
a 30 17
a 30 319
a 30 96
a 30 20
a 30 236
a 30 239
a 30 98
a 30 240
a 30 241
a 30 127
a 30 128
a 30 23
a 30 161
a 30 162
a 30 164
a 30 244
a 30 245
a 30 355
a 30 248
a 30 249
a 30 250
a 30 166
a 30 359
a 30 321
a 30 251
a 30 252
a 30 253
a 30 24
a 30 254
a 30 255
a 30 361
a 30 25
a 30 479
a 30 256
a 30 26
a 30 362
a 30 260
a 30 264
a 30 406
a 30 265
a 30 323
a 30 129
a 30 324
a 30 407
a 30 267
a 30 268
a 30 27
a 30 269
a 30 408
a 30 462
a 30 270
a 30 271
a 30 272
a 30 130
a 30 110
a 30 273
a 30 84
a 30 10
a 30 102
a 30 397
a 30 218
a 30 11
a 30 220
a 30 105
a 30 232
a 30 156
a 30 158
a 30 14
a 30 133
a 30 134
a 30 16
a 30 159
a 30 237
a 30 108
a 30 21
a 30 22
a 30 322
a 30 460
a 30 257
a 30 258
a 30 259
a 30 261
a 30 262
a 30 263
a 30 364
a 30 29
a 30 274
a 30 366
a 30 464
a 30 275
a 30 167
a 30 168
a 30 31
a 30 169
a 30 326
a 30 327
a 30 328
a 30 368
a 30 279
a 30 369
a 30 411
a 30 412
a 30 414
a 30 280
a 30 281
a 30 282
a 30 330
a 30 371
a 30 283
a 30 415
a 30 32
a 30 34
a 30 284
a 30 417
a 30 287
a 30 288
a 30 289
a 30 290
a 30 331
a 30 467
a 30 35
a 30 291
a 30 111
a 30 38
a 30 304
a 30 306
a 30 307
a 30 427
a 30 394
a 30 429
a 30 112
a 30 135
a 30 179
a 30 136
a 30 39
a 30 309
a 30 41
a 30 113
a 30 42
a 30 43
a 30 44
a 30 45
a 30 46
a 30 114
a 30 47
a 30 48
a 30 49
a 30 115
a 30 50
a 30 51
a 30 52
a 30 53
a 30 54
a 30 55
a 30 181
a 30 56
a 30 57
a 30 58
a 30 59
a 30 60
a 30 99
a 30 183
a 30 61
a 30 62
a 30 184
a 30 63
a 30 185
a 30 367
a 30 276
a 30 277
a 30 325
a 30 409
a 30 410
a 30 278
a 30 329
a 30 384
a 30 370
a 30 33
a 30 416
a 30 170
a 30 465
a 30 285
a 30 372
a 30 286
a 30 373
a 30 420
a 30 421
a 30 422
a 30 468
a 30 469
a 30 423
a 30 292
a 30 293
a 30 294
a 30 296
a 30 297
a 30 37
a 30 171
a 30 426
a 30 299
a 30 300
a 30 172
a 30 301
a 30 302
a 30 303
a 30 471
a 30 472
a 30 173
a 30 144
a 30 174
a 30 428
a 30 431
a 30 308
a 30 473
a 30 177
a 30 432
a 30 40
a 30 434
a 30 182
a 30 312
a 30 116
a 30 396
a 30 436
a 31 2
a 31 5
a 31 3
a 31 4
a 31 117
a 31 1
a 31 100
a 31 131
a 31 118
a 31 119
a 31 145
a 31 120
a 31 146
a 31 132
a 31 121
a 31 147
a 31 137
a 31 6
a 31 64
a 31 68
a 31 71
a 31 153
a 31 221
a 31 256
a 31 26
a 31 266
a 31 27
a 31 462
a 31 271
a 31 30
a 31 464
a 31 275
a 31 167
a 31 168
a 31 318
a 31 7
a 31 148
a 31 439
a 31 149
a 31 65
a 31 66
a 31 74
a 31 78
a 31 84
a 31 138
a 31 10
a 31 90
a 31 101
a 31 102
a 31 150
a 31 378
a 31 139
a 31 220
a 31 386
a 31 446
a 31 104
a 31 222
a 31 223
a 31 225
a 31 228
a 31 12
a 31 13
a 31 229
a 31 230
a 31 105
a 31 232
a 31 154
a 31 106
a 31 107
a 31 14
a 31 15
a 31 133
a 31 134
a 31 16
a 31 159
a 31 17
a 31 236
a 31 240
a 31 21
a 31 22
a 31 127
a 31 128
a 31 23
a 31 161
a 31 162
a 31 164
a 31 251
a 31 252
a 31 253
a 31 255
a 31 361
a 31 25
a 31 460
a 31 362
a 31 257
a 31 260
a 31 263
a 31 264
a 31 406
a 31 265
a 31 323
a 31 363
a 31 364
a 31 407
a 31 267
a 31 268
a 31 269
a 31 272
a 31 110
a 31 28
a 31 29
a 31 273
a 31 274
a 31 366
a 31 169
a 31 277
a 31 326
a 31 328
a 31 278
a 31 368
a 31 279
a 31 329
a 31 411
a 31 384
a 31 280
a 31 281
a 31 282
a 31 371
a 31 283
a 31 32
a 31 33
a 31 34
a 31 285
a 31 288
a 31 289
a 31 290
a 31 467
a 31 373
a 31 420
a 31 423
a 31 35
a 31 292
a 31 111
a 31 470
a 31 37
a 31 298
a 31 299
a 31 38
a 31 173
a 31 394
a 31 174
a 31 429
a 31 112
a 31 175
a 31 176
a 31 135
a 31 177
a 31 178
a 31 179
a 31 136
a 31 376
a 31 309
a 31 40
a 31 41
a 31 113
a 31 42
a 31 43
a 31 44
a 31 46
a 31 114
a 31 47
a 31 48
a 31 49
a 31 115
a 31 50
a 31 51
a 31 52
a 31 53
a 31 54
a 31 55
a 31 181
a 31 56
a 31 57
a 31 58
a 31 59
a 31 60
a 31 99
a 31 183
a 31 61
a 31 62
a 31 184
a 31 63
a 31 185
a 31 466
a 31 291
a 31 172
a 31 301
a 32 2
a 32 5
a 32 3
a 32 4
a 32 117
a 32 1
a 32 100
a 32 118
a 32 119
a 32 145
a 32 120
a 32 146
a 32 121
a 32 147
a 32 137
a 32 6
a 32 314
a 32 315
a 32 316
a 32 318
a 32 317
a 32 7
a 32 8
a 32 186
a 32 187
a 32 188
a 32 189
a 32 332
a 32 190
a 32 191
a 32 192
a 32 193
a 32 194
a 32 195
a 32 196
a 32 333
a 32 197
a 32 198
a 32 199
a 32 200
a 32 334
a 32 201
a 32 202
a 32 335
a 32 336
a 32 203
a 32 204
a 32 337
a 32 338
a 32 207
a 32 208
a 32 209
a 32 339
a 32 340
a 32 148
a 32 341
a 32 395
a 32 342
a 32 438
a 32 213
a 32 214
a 32 215
a 32 345
a 32 217
a 32 346
a 32 64
a 32 65
a 32 66
a 32 122
a 32 123
a 32 67
a 32 124
a 32 68
a 32 125
a 32 69
a 32 70
a 32 72
a 32 383
a 32 73
a 32 74
a 32 75
a 32 76
a 32 77
a 32 78
a 32 79
a 32 80
a 32 81
a 32 82
a 32 83
a 32 84
a 32 85
a 32 86
a 32 138
a 32 10
a 32 126
a 32 88
a 32 91
a 32 92
a 32 93
a 32 102
a 32 389
a 32 151
a 32 397
a 32 218
a 32 377
a 32 378
a 32 442
a 32 139
a 32 220
a 32 350
a 32 446
a 32 221
a 32 104
a 32 222
a 32 225
a 32 226
a 32 227
a 32 380
a 32 12
a 32 13
a 32 229
a 32 230
a 32 398
a 32 231
a 32 399
a 32 400
a 32 401
a 32 402
a 32 140
a 32 141
a 32 142
a 32 105
a 32 232
a 32 233
a 32 154
a 32 155
a 32 106
a 32 156
a 32 157
a 32 158
a 32 107
a 32 234
a 32 14
a 32 15
a 32 134
a 32 17
a 32 18
a 32 19
a 32 319
a 32 96
a 32 235
a 32 352
a 32 20
a 32 236
a 32 237
a 32 238
a 32 239
a 32 97
a 32 108
a 32 98
a 32 320
a 32 143
a 32 240
a 32 21
a 32 241
a 32 242
a 32 22
a 32 127
a 32 128
a 32 23
a 32 243
a 32 164
a 32 109
a 32 244
a 32 245
a 32 354
a 32 246
a 32 356
a 32 247
a 32 165
a 32 248
a 32 249
a 32 166
a 32 359
a 32 321
a 32 251
a 32 252
a 32 253
a 32 24
a 32 254
a 32 360
a 32 322
a 32 255
a 32 361
a 32 25
a 32 256
a 32 26
a 32 460
a 32 362
a 32 257
a 32 258
a 32 259
a 32 260
a 32 261
a 32 264
a 32 406
a 32 265
a 32 266
a 32 323
a 32 363
a 32 129
a 32 324
a 32 407
a 32 267
a 32 268
a 32 27
a 32 269
a 32 271
a 32 272
a 32 110
a 32 463
a 32 28
a 32 273
a 32 274
a 32 366
a 32 30
a 32 275
a 32 167
a 32 276
a 32 168
a 32 31
a 32 169
a 32 277
a 32 325
a 32 409
a 32 326
a 32 328
a 32 278
a 32 368
a 32 279
a 32 329
a 32 369
a 32 411
a 32 384
a 32 412
a 32 413
a 32 414
a 32 370
a 32 280
a 32 281
a 32 282
a 32 330
a 32 371
a 32 283
a 32 415
a 32 132
a 32 101
a 32 441
a 32 133
a 32 16
a 32 263
a 32 33
a 32 34
a 32 393
a 32 465
a 32 285
a 32 466
a 32 372
a 32 287
a 32 288
a 32 289
a 32 290
a 32 467
a 32 292
a 32 111
a 32 297
a 32 37
a 32 38
a 32 301
a 32 307
a 32 427
a 32 394
a 32 174
a 32 429
a 32 112
a 32 175
a 32 135
a 32 40
a 32 41
a 32 113
a 32 42
a 32 43
a 32 44
a 32 46
a 32 114
a 32 47
a 32 48
a 32 49
a 32 115
a 32 50
a 32 51
a 32 52
a 32 53
a 32 54
a 32 55
a 32 181
a 32 56
a 32 57
a 32 58
a 32 59
a 32 60
a 32 99
a 32 183
a 32 61
a 32 62
a 32 63
a 32 185
a 32 284
a 32 417
a 32 170
a 32 286
a 32 331
a 32 419
a 32 373
a 32 420
a 32 421
a 32 422
a 32 468
a 32 423
a 32 291
a 32 424
a 32 293
a 32 294
a 32 295
a 32 296
a 32 36
a 32 171
a 32 298
a 32 426
a 32 299
a 32 300
a 32 172
a 32 302
a 32 303
a 32 304
a 32 471
a 32 472
a 32 305
a 32 173
a 32 144
a 32 428
a 32 431
a 32 308
a 32 432
a 32 45
a 32 180
a 32 435
a 32 311
a 32 182
a 32 312
a 32 116
a 32 385
a 32 184
a 33 2
a 33 5
a 33 3
a 33 117
a 33 1
a 33 100
a 33 131
a 33 118
a 33 119
a 33 120
a 33 146
a 33 121
a 33 147
a 33 439
a 33 68
a 33 391
a 33 127
a 33 128
a 33 164
a 33 255
a 33 256
a 33 26
a 33 265
a 33 266
a 33 268
a 33 27
a 33 269
a 33 271
a 33 272
a 33 28
a 33 273
a 33 464
a 33 167
a 33 276
a 33 168
a 33 31
a 33 169
a 33 277
a 33 409
a 33 326
a 33 327
a 33 328
a 33 279
a 33 280
a 33 281
a 33 283
a 33 32
a 33 314
a 33 318
a 33 148
a 33 84
a 33 10
a 33 102
a 33 441
a 33 103
a 33 220
a 33 104
a 33 105
a 33 232
a 33 106
a 33 107
a 33 14
a 33 133
a 33 16
a 33 17
a 33 20
a 33 236
a 33 237
a 33 240
a 33 21
a 33 22
a 33 23
a 33 247
a 33 251
a 33 252
a 33 253
a 33 254
a 33 460
a 33 257
a 33 259
a 33 260
a 33 261
a 33 263
a 33 264
a 33 406
a 33 323
a 33 363
a 33 461
a 33 110
a 33 29
a 33 274
a 33 366
a 33 30
a 33 275
a 33 278
a 33 329
a 33 411
a 33 282
a 33 371
a 33 415
a 33 34
a 33 287
a 33 289
a 33 331
a 33 467
a 33 419
a 33 292
a 33 111
a 33 296
a 33 425
a 33 37
a 33 171
a 33 38
a 33 394
a 33 429
a 33 112
a 33 40
a 33 41
a 33 113
a 33 42
a 33 43
a 33 44
a 33 46
a 33 114
a 33 47
a 33 48
a 33 49
a 33 115
a 33 50
a 33 51
a 33 52
a 33 53
a 33 54
a 33 55
a 33 181
a 33 56
a 33 57
a 33 58
a 33 59
a 33 60
a 33 99
a 33 183
a 33 61
a 33 62
a 33 63
a 33 185
a 33 285
a 33 421
a 33 468
a 33 35
a 33 297
a 33 298
a 33 426
a 33 299
a 33 300
a 33 172
a 33 301
a 33 303
a 33 304
a 33 471
a 33 173
a 33 307
a 33 427
a 34 2
a 34 5
a 34 3
a 34 117
a 34 1
a 34 100
a 34 118
a 34 119
a 34 120
a 34 121
a 34 315
a 34 316
a 34 318
a 34 317
a 34 7
a 34 186
a 34 187
a 34 188
a 34 189
a 34 332
a 34 190
a 34 193
a 34 194
a 34 195
a 34 196
a 34 197
a 34 198
a 34 199
a 34 200
a 34 201
a 34 202
a 34 203
a 34 205
a 34 207
a 34 208
a 34 209
a 34 340
a 34 148
a 34 395
a 34 342
a 34 438
a 34 212
a 34 213
a 34 214
a 34 215
a 34 345
a 34 217
a 34 346
a 34 439
a 34 149
a 34 347
a 34 348
a 34 64
a 34 65
a 34 66
a 34 382
a 34 123
a 34 67
a 34 124
a 34 68
a 34 125
a 34 69
a 34 70
a 34 71
a 34 72
a 34 383
a 34 73
a 34 74
a 34 75
a 34 76
a 34 77
a 34 78
a 34 79
a 34 80
a 34 81
a 34 82
a 34 83
a 34 84
a 34 85
a 34 387
a 34 86
a 34 87
a 34 138
a 34 10
a 34 126
a 34 88
a 34 89
a 34 90
a 34 101
a 34 92
a 34 93
a 34 440
a 34 94
a 34 95
a 34 102
a 34 150
a 34 388
a 34 389
a 34 151
a 34 397
a 34 218
a 34 390
a 34 377
a 34 441
a 34 478
a 34 349
a 34 477
a 34 378
a 34 442
a 34 11
a 34 139
a 34 103
a 34 443
a 34 444
a 34 482
a 34 219
a 34 220
a 34 386
a 34 350
a 34 152
a 34 153
a 34 445
a 34 446
a 34 483
a 34 391
a 34 221
a 34 104
a 34 222
a 34 379
a 34 223
a 34 224
a 34 225
a 34 226
a 34 227
a 34 380
a 34 228
a 34 381
a 34 12
a 34 13
a 34 229
a 34 447
a 34 448
a 34 230
a 34 398
a 34 231
a 34 449
a 34 399
a 34 400
a 34 401
a 34 402
a 34 450
a 34 451
a 34 140
a 34 141
a 34 142
a 34 105
a 34 232
a 34 233
a 34 154
a 34 155
a 34 106
a 34 156
a 34 157
a 34 158
a 34 107
a 34 234
a 34 14
a 34 15
a 34 403
a 34 133
a 34 134
a 34 16
a 34 159
a 34 404
a 34 160
a 34 405
a 34 452
a 34 17
a 34 18
a 34 19
a 34 319
a 34 96
a 34 235
a 34 352
a 34 455
a 34 20
a 34 236
a 34 237
a 34 238
a 34 239
a 34 97
a 34 108
a 34 98
a 34 320
a 34 143
a 34 240
a 34 21
a 34 241
a 34 242
a 34 22
a 34 353
a 34 127
a 34 128
a 34 23
a 34 392
a 34 456
a 34 243
a 34 457
a 34 458
a 34 161
a 34 459
a 34 162
a 34 163
a 34 164
a 34 109
a 34 244
a 34 245
a 34 354
a 34 246
a 34 355
a 34 356
a 34 357
a 34 358
a 34 247
a 34 165
a 34 248
a 34 249
a 34 250
a 34 166
a 34 359
a 34 321
a 34 251
a 34 252
a 34 253
a 34 24
a 34 254
a 34 360
a 34 322
a 34 255
a 34 361
a 34 25
a 34 479
a 34 480
a 34 256
a 34 26
a 34 460
a 34 362
a 34 257
a 34 258
a 34 259
a 34 260
a 34 261
a 34 262
a 34 263
a 34 264
a 34 406
a 34 265
a 34 266
a 34 323
a 34 363
a 34 461
a 34 129
a 34 324
a 34 364
a 34 365
a 34 407
a 34 267
a 34 268
a 34 27
a 34 269
a 34 408
a 34 462
a 34 270
a 34 271
a 34 272
a 34 130
a 34 110
a 34 463
a 34 28
a 34 29
a 34 273
a 34 274
a 34 366
a 34 30
a 34 464
a 34 275
a 34 367
a 34 167
a 34 276
a 34 168
a 34 31
a 34 169
a 34 277
a 34 325
a 34 409
a 34 410
a 34 326
a 34 327
a 34 328
a 34 278
a 34 368
a 34 279
a 34 329
a 34 369
a 34 411
a 34 384
a 34 412
a 34 413
a 34 414
a 34 370
a 34 280
a 34 281
a 34 282
a 34 330
a 34 371
a 34 283
a 34 415
a 34 32
a 34 33
a 34 6
a 34 284
a 34 285
a 34 287
a 34 288
a 34 289
a 34 290
a 34 331
a 34 467
a 34 419
a 34 35
a 34 292
a 34 111
a 34 294
a 34 296
a 34 297
a 34 36
a 34 37
a 34 171
a 34 299
a 34 38
a 34 172
a 34 301
a 34 394
a 34 174
a 34 429
a 34 112
a 34 175
a 34 176
a 34 135
a 34 177
a 34 178
a 34 179
a 34 136
a 34 40
a 34 41
a 34 113
a 34 42
a 34 43
a 34 44
a 34 45
a 34 46
a 34 114
a 34 47
a 34 48
a 34 49
a 34 115
a 34 50
a 34 51
a 34 52
a 34 53
a 34 54
a 34 55
a 34 181
a 34 56
a 34 57
a 34 58
a 34 59
a 34 60
a 34 99
a 34 183
a 34 61
a 34 62
a 34 184
a 34 63
a 34 185
a 34 416
a 34 418
a 34 170
a 34 393
a 34 465
a 34 466
a 34 372
a 34 286
a 34 373
a 34 420
a 34 421
a 34 422
a 34 468
a 34 469
a 34 423
a 34 291
a 34 293
a 34 295
a 34 470
a 34 425
a 34 298
a 34 426
a 34 300
a 34 302
a 34 303
a 34 304
a 34 471
a 34 472
a 34 305
a 34 173
a 34 306
a 34 307
a 34 427
a 34 144
a 34 374
a 34 428
a 34 375
a 34 430
a 34 431
a 34 308
a 34 473
a 34 474
a 34 475
a 34 432
a 34 39
a 34 376
a 34 433
a 34 309
a 34 180
a 35 2
a 35 5
a 35 3
a 35 117
a 35 1
a 35 100
a 35 118
a 35 119
a 35 120
a 35 121
a 35 137
a 35 314
a 35 315
a 35 316
a 35 318
a 35 7
a 35 8
a 35 186
a 35 187
a 35 188
a 35 189
a 35 190
a 35 191
a 35 192
a 35 193
a 35 194
a 35 195
a 35 196
a 35 333
a 35 197
a 35 198
a 35 199
a 35 200
a 35 334
a 35 201
a 35 203
a 35 207
a 35 339
a 35 340
a 35 148
a 35 344
a 35 217
a 35 346
a 35 64
a 35 65
a 35 68
a 35 70
a 35 383
a 35 73
a 35 74
a 35 78
a 35 80
a 35 81
a 35 83
a 35 84
a 35 86
a 35 10
a 35 126
a 35 95
a 35 151
a 35 218
a 35 377
a 35 220
a 35 221
a 35 104
a 35 225
a 35 229
a 35 398
a 35 231
a 35 140
a 35 141
a 35 142
a 35 232
a 35 107
a 35 234
a 35 134
a 35 17
a 35 18
a 35 20
a 35 236
a 35 238
a 35 239
a 35 97
a 35 108
a 35 143
a 35 240
a 35 21
a 35 22
a 35 127
a 35 128
a 35 164
a 35 109
a 35 244
a 35 249
a 35 250
a 35 359
a 35 255
a 35 361
a 35 25
a 35 256
a 35 26
a 35 260
a 35 264
a 35 265
a 35 266
a 35 363
a 35 129
a 35 267
a 35 27
a 35 269
a 35 270
a 35 271
a 35 272
a 35 110
a 35 273
a 35 274
a 35 30
a 35 275
a 35 167
a 35 168
a 35 31
a 35 277
a 35 278
a 35 279
a 35 280
a 35 281
a 35 282
a 35 34
a 35 284
a 35 170
a 35 285
a 35 287
a 35 289
a 35 419
a 35 422
a 35 6
a 35 102
a 35 386
a 35 106
a 35 14
a 35 133
a 35 16
a 35 96
a 35 251
a 35 252
a 35 460
a 35 261
a 35 263
a 35 406
a 35 33
a 35 291
a 35 292
a 35 111
a 35 293
a 35 294
a 35 296
a 35 297
a 35 37
a 35 171
a 35 38
a 35 394
a 35 429
a 35 112
a 35 41
a 35 113
a 35 42
a 35 43
a 35 44
a 35 46
a 35 114
a 35 47
a 35 48
a 35 49
a 35 115
a 35 50
a 35 51
a 35 52
a 35 53
a 35 54
a 35 55
a 35 181
a 35 56
a 35 57
a 35 58
a 35 59
a 35 60
a 35 99
a 35 183
a 35 61
a 35 62
a 35 63
a 35 185
a 35 295
a 35 36
a 35 298
a 35 299
a 35 300
a 35 172
a 35 301
a 35 302
a 35 303
a 35 472
a 35 305
a 35 173
a 35 307
a 35 308
a 35 473
a 35 309
a 35 40
a 35 180
a 35 434
a 35 435
a 35 311
a 35 182
a 35 312
a 35 116
a 35 396
a 35 385
a 35 313
a 35 476
a 35 436
a 35 184
a 111 2
a 111 3
a 111 100
a 111 137
a 111 6
a 111 318
a 111 317
a 111 7
a 111 186
a 111 187
a 111 188
a 111 189
a 111 332
a 111 190
a 111 193
a 111 194
a 111 196
a 111 197
a 111 198
a 111 199
a 111 200
a 111 201
a 111 202
a 111 203
a 111 205
a 111 207
a 111 208
a 111 340
a 111 148
a 111 341
a 111 395
a 111 342
a 111 212
a 111 213
a 111 214
a 111 215
a 111 344
a 111 216
a 111 345
a 111 217
a 111 346
a 111 439
a 111 149
a 111 347
a 111 348
a 111 64
a 111 65
a 111 66
a 111 68
a 111 69
a 111 70
a 111 72
a 111 73
a 111 74
a 111 75
a 111 76
a 111 78
a 111 80
a 111 81
a 111 83
a 111 84
a 111 86
a 111 126
a 111 92
a 111 95
a 111 102
a 111 151
a 111 397
a 111 218
a 111 377
a 111 378
a 111 219
a 111 220
a 111 350
a 111 221
a 111 104
a 111 223
a 111 224
a 111 225
a 111 227
a 111 12
a 111 229
a 111 448
a 111 230
a 111 398
a 111 231
a 111 399
a 111 400
a 111 401
a 111 402
a 111 141
a 111 142
a 111 105
a 111 232
a 111 154
a 111 155
a 111 107
a 111 234
a 111 14
a 111 15
a 111 403
a 111 133
a 111 134
a 111 16
a 111 159
a 111 404
a 111 405
a 111 17
a 111 18
a 111 19
a 111 96
a 111 235
a 111 352
a 111 20
a 111 236
a 111 237
a 111 239
a 111 97
a 111 108
a 111 98
a 111 320
a 111 143
a 111 240
a 111 21
a 111 22
a 111 353
a 111 127
a 111 128
a 111 23
a 111 243
a 111 164
a 111 109
a 111 244
a 111 245
a 111 248
a 111 249
a 111 250
a 111 251
a 111 252
a 111 253
a 111 254
a 111 255
a 111 256
a 111 26
a 111 257
a 111 263
a 111 264
a 111 406
a 111 265
a 111 266
a 111 323
a 111 129
a 111 407
a 111 267
a 111 268
a 111 27
a 111 269
a 111 408
a 111 270
a 111 271
a 111 272
a 111 110
a 111 28
a 111 273
a 111 274
a 111 366
a 111 30
a 111 464
a 111 275
a 111 167
a 111 276
a 111 168
a 111 31
a 111 169
a 111 277
a 111 325
a 111 409
a 111 410
a 111 326
a 111 327
a 111 328
a 111 278
a 111 368
a 111 279
a 111 329
a 111 369
a 111 411
a 111 384
a 111 412
a 111 413
a 111 414
a 111 370
a 111 280
a 111 281
a 111 282
a 111 330
a 111 283
a 111 415
a 111 32
a 111 33
a 111 34
a 111 284
a 111 416
a 111 417
a 111 418
a 111 170
a 111 393
a 111 285
a 111 372
a 111 286
a 111 287
a 111 288
a 111 289
a 111 290
a 111 331
a 111 419
a 111 373
a 111 420
a 111 421
a 111 422
a 111 423
a 111 35
a 111 291
a 111 292
a 111 119
a 111 138
a 111 10
a 111 386
a 111 228
a 111 13
a 111 447
a 111 106
a 111 158
a 111 160
a 111 242
a 111 247
a 111 322
a 111 25
a 111 460
a 111 362
a 111 363
a 111 29
a 111 469
a 111 294
a 111 295
a 111 296
a 111 297
a 111 425
a 111 38
a 111 172
a 111 394
a 111 174
a 111 429
a 111 112
a 111 175
a 111 176
a 111 135
a 111 177
a 111 178
a 111 179
a 111 136
a 111 309
a 111 41
a 111 113
a 111 42
a 111 43
a 111 44
a 111 46
a 111 114
a 111 47
a 111 48
a 111 49
a 111 115
a 111 50
a 111 51
a 111 52
a 111 53
a 111 54
a 111 55
a 111 181
a 111 56
a 111 57
a 111 58
a 111 59
a 111 60
a 111 99
a 111 183
a 111 61
a 111 62
a 111 184
a 111 63
a 111 185
a 111 424
a 111 293
a 111 36
a 111 37
a 111 171
a 111 298
a 111 426
a 111 299
a 111 300
a 111 301
a 111 302
a 111 303
a 111 304
a 111 472
a 111 305
a 111 306
a 111 307
a 111 427
a 111 144
a 111 374
a 111 428
a 111 430
a 111 431
a 111 308
a 111 432
a 111 39
a 111 433
a 111 40
a 111 45
a 111 180
a 111 434
a 111 435
a 111 311
a 111 182
a 111 312
a 111 116
a 111 436
a 36 2
a 36 5
a 36 3
a 36 4
a 36 117
a 36 1
a 36 100
a 36 131
a 36 118
a 36 119
a 36 145
a 36 120
a 36 146
a 36 121
a 36 147
a 36 137
a 36 6
a 36 318
a 36 317
a 36 7
a 36 8
a 36 186
a 36 187
a 36 188
a 36 189
a 36 332
a 36 190
a 36 191
a 36 193
a 36 194
a 36 195
a 36 196
a 36 197
a 36 198
a 36 199
a 36 200
a 36 201
a 36 202
a 36 203
a 36 204
a 36 205
a 36 437
a 36 207
a 36 208
a 36 209
a 36 340
a 36 148
a 36 341
a 36 395
a 36 342
a 36 212
a 36 213
a 36 214
a 36 215
a 36 344
a 36 216
a 36 345
a 36 64
a 36 65
a 36 66
a 36 123
a 36 68
a 36 70
a 36 71
a 36 73
a 36 78
a 36 81
a 36 82
a 36 86
a 36 126
a 36 95
a 36 151
a 36 220
a 36 221
a 36 104
a 36 229
a 36 107
a 36 134
a 36 17
a 36 97
a 36 21
a 36 128
a 36 249
a 36 250
a 36 255
a 36 256
a 36 26
a 36 267
a 36 27
a 36 272
a 36 275
a 36 277
a 36 328
a 36 279
a 36 34
a 36 284
a 36 331
a 36 294
a 36 316
a 36 84
a 36 10
a 36 102
a 36 12
a 36 232
a 36 106
a 36 14
a 36 16
a 36 236
a 36 237
a 36 240
a 36 22
a 36 127
a 36 164
a 36 253
a 36 24
a 36 460
a 36 258
a 36 259
a 36 261
a 36 406
a 36 265
a 36 110
a 36 167
a 36 32
a 36 287
a 36 467
a 36 35
a 36 292
a 36 111
a 36 470
a 36 37
a 36 394
a 36 112
a 36 41
a 36 113
a 36 42
a 36 43
a 36 44
a 36 46
a 36 114
a 36 47
a 36 48
a 36 49
a 36 115
a 36 50
a 36 51
a 36 52
a 36 53
a 36 54
a 36 55
a 36 181
a 36 56
a 36 57
a 36 58
a 36 59
a 36 60
a 36 99
a 36 183
a 36 61
a 36 62
a 36 63
a 36 185
a 36 298
a 36 299
a 36 38
a 36 300
a 36 302
a 36 303
a 36 304
a 36 307
a 36 180
a 36 434
a 36 435
a 36 311
a 36 182
a 36 312
a 36 116
a 36 184
a 37 2
a 37 5
a 37 3
a 37 117
a 37 1
a 37 100
a 37 118
a 37 119
a 37 120
a 37 146
a 37 121
a 37 147
a 37 137
a 37 6
a 37 318
a 37 317
a 37 7
a 37 186
a 37 188
a 37 332
a 37 197
a 37 200
a 37 201
a 37 205
a 37 338
a 37 208
a 37 340
a 37 148
a 37 344
a 37 217
a 37 439
a 37 348
a 37 64
a 37 66
a 37 68
a 37 70
a 37 73
a 37 78
a 37 81
a 37 126
a 37 95
a 37 151
a 37 220
a 37 391
a 37 221
a 37 104
a 37 229
a 37 107
a 37 134
a 37 17
a 37 97
a 37 21
a 37 128
a 37 164
a 37 249
a 37 250
a 37 255
a 37 256
a 37 26
a 37 362
a 37 406
a 37 265
a 37 266
a 37 365
a 37 267
a 37 27
a 37 269
a 37 271
a 37 272
a 37 28
a 37 464
a 37 275
a 37 167
a 37 276
a 37 168
a 37 31
a 37 169
a 37 277
a 37 327
a 37 328
a 37 279
a 37 280
a 37 281
a 37 283
a 37 32
a 37 33
a 37 34
a 37 284
a 37 285
a 37 289
a 37 419
a 37 421
a 37 468
a 37 35
a 37 291
a 37 292
a 37 294
a 37 297
a 37 36
a 37 314
a 37 65
a 37 84
a 37 138
a 37 10
a 37 102
a 37 441
a 37 349
a 37 378
a 37 228
a 37 13
a 37 141
a 37 142
a 37 105
a 37 232
a 37 233
a 37 106
a 37 158
a 37 14
a 37 133
a 37 16
a 37 159
a 37 20
a 37 236
a 37 237
a 37 240
a 37 22
a 37 127
a 37 23
a 37 247
a 37 251
a 37 252
a 37 253
a 37 460
a 37 257
a 37 258
a 37 259
a 37 260
a 37 261
a 37 263
a 37 264
a 37 323
a 37 363
a 37 461
a 37 110
a 37 273
a 37 274
a 37 366
a 37 30
a 37 278
a 37 368
a 37 282
a 37 330
a 37 287
a 37 288
a 37 290
a 37 331
a 37 467
a 37 111
a 37 293
a 37 295
a 37 296
a 37 425
a 37 38
a 37 172
a 37 173
a 37 307
a 37 394
a 37 429
a 37 112
a 37 175
a 37 135
a 37 177
a 37 179
a 37 136
a 37 41
a 37 113
a 37 42
a 37 43
a 37 44
a 37 46
a 37 114
a 37 47
a 37 48
a 37 49
a 37 115
a 37 50
a 37 51
a 37 52
a 37 53
a 37 54
a 37 55
a 37 181
a 37 56
a 37 57
a 37 58
a 37 59
a 37 60
a 37 99
a 37 183
a 37 61
a 37 62
a 37 63
a 37 185
a 37 298
a 37 426
a 37 299
a 37 300
a 37 301
a 37 303
a 37 304
a 37 471
a 37 472
a 37 306
a 37 144
a 37 180
a 37 434
a 37 435
a 37 311
a 37 182
a 37 312
a 37 116
a 38 2
a 38 5
a 38 3
a 38 4
a 38 117
a 38 1
a 38 100
a 38 131
a 38 118
a 38 119
a 38 120
a 38 146
a 38 121
a 38 147
a 38 137
a 38 6
a 38 314
a 38 315
a 38 316
a 38 318
a 38 317
a 38 7
a 38 8
a 38 186
a 38 187
a 38 188
a 38 189
a 38 332
a 38 190
a 38 191
a 38 192
a 38 193
a 38 194
a 38 195
a 38 196
a 38 197
a 38 198
a 38 199
a 38 200
a 38 334
a 38 201
a 38 202
a 38 335
a 38 336
a 38 203
a 38 204
a 38 205
a 38 206
a 38 337
a 38 338
a 38 437
a 38 207
a 38 208
a 38 209
a 38 339
a 38 340
a 38 148
a 38 341
a 38 9
a 38 395
a 38 342
a 38 438
a 38 210
a 38 212
a 38 213
a 38 343
a 38 214
a 38 215
a 38 344
a 38 216
a 38 345
a 38 217
a 38 346
a 38 439
a 38 149
a 38 348
a 38 64
a 38 65
a 38 66
a 38 382
a 38 123
a 38 67
a 38 124
a 38 68
a 38 125
a 38 69
a 38 70
a 38 72
a 38 383
a 38 73
a 38 74
a 38 75
a 38 76
a 38 77
a 38 78
a 38 80
a 38 81
a 38 82
a 38 83
a 38 84
a 38 86
a 38 138
a 38 10
a 38 126
a 38 88
a 38 90
a 38 101
a 38 92
a 38 93
a 38 95
a 38 102
a 38 150
a 38 151
a 38 218
a 38 377
a 38 219
a 38 220
a 38 386
a 38 350
a 38 153
a 38 446
a 38 391
a 38 221
a 38 104
a 38 222
a 38 223
a 38 224
a 38 225
a 38 226
a 38 227
a 38 12
a 38 13
a 38 229
a 38 230
a 38 398
a 38 231
a 38 399
a 38 400
a 38 401
a 38 402
a 38 451
a 38 141
a 38 142
a 38 107
a 38 234
a 38 14
a 38 15
a 38 403
a 38 133
a 38 134
a 38 16
a 38 17
a 38 18
a 38 96
a 38 20
a 38 236
a 38 237
a 38 97
a 38 108
a 38 98
a 38 143
a 38 240
a 38 21
a 38 241
a 38 242
a 38 22
a 38 127
a 38 128
a 38 23
a 38 243
a 38 164
a 38 109
a 38 244
a 38 245
a 38 246
a 38 355
a 38 248
a 38 249
a 38 250
a 38 166
a 38 359
a 38 251
a 38 253
a 38 24
a 38 255
a 38 256
a 38 26
a 38 362
a 38 264
a 38 265
a 38 266
a 38 323
a 38 129
a 38 324
a 38 407
a 38 267
a 38 268
a 38 27
a 38 269
a 38 408
a 38 271
a 38 272
a 38 110
a 38 28
a 38 273
a 38 274
a 38 366
a 38 30
a 38 464
a 38 275
a 38 167
a 38 168
a 38 31
a 38 169
a 38 277
a 38 325
a 38 409
a 38 326
a 38 327
a 38 328
a 38 278
a 38 279
a 38 411
a 38 384
a 38 280
a 38 281
a 38 282
a 38 330
a 38 283
a 38 32
a 38 33
a 38 34
a 38 284
a 38 285
a 38 466
a 38 286
a 38 287
a 38 288
a 38 289
a 38 419
a 38 421
a 38 422
a 38 468
a 38 35
a 38 291
a 38 292
a 38 111
a 38 293
a 38 294
a 38 296
a 38 297
a 38 37
a 38 171
a 38 298
a 38 426
a 38 299
a 38 89
a 38 397
a 38 390
a 38 441
a 38 349
a 38 477
a 38 378
a 38 442
a 38 139
a 38 228
a 38 381
a 38 447
a 38 448
a 38 105
a 38 232
a 38 233
a 38 154
a 38 106
a 38 157
a 38 158
a 38 159
a 38 160
a 38 319
a 38 235
a 38 352
a 38 455
a 38 485
a 38 161
a 38 162
a 38 163
a 38 247
a 38 165
a 38 252
a 38 254
a 38 322
a 38 361
a 38 25
a 38 460
a 38 257
a 38 258
a 38 259
a 38 260
a 38 261
a 38 263
a 38 406
a 38 363
a 38 461
a 38 365
a 38 29
a 38 276
a 38 368
a 38 329
a 38 412
a 38 371
a 38 415
a 38 417
a 38 170
a 38 372
a 38 290
a 38 331
a 38 467
a 38 373
a 38 420
a 38 295
a 38 36
a 38 425
a 38 172
a 38 301
a 38 304
a 38 471
a 38 173
a 38 306
a 38 307
a 38 427
a 38 144
a 38 394
a 38 174
a 38 429
a 38 112
a 38 175
a 38 176
a 38 135
a 38 177
a 38 178
a 38 179
a 38 136
a 38 39
a 38 309
a 38 40
a 38 41
a 38 113
a 38 42
a 38 43
a 38 44
a 38 45
a 38 180
a 38 46
a 38 114
a 38 47
a 38 48
a 38 49
a 38 115
a 38 50
a 38 51
a 38 52
a 38 53
a 38 54
a 38 55
a 38 181
a 38 56
a 38 57
a 38 58
a 38 59
a 38 60
a 38 311
a 38 99
a 38 183
a 38 61
a 38 396
a 38 62
a 38 184
a 38 63
a 38 185
a 38 300
a 38 302
a 38 303
a 38 472
a 38 305
a 38 374
a 38 428
a 38 431
a 38 308
a 38 434
a 38 435
a 38 312
a 38 116
a 38 436
a 112 2
a 112 3
a 112 100
a 112 137
a 112 6
a 112 315
a 112 318
a 112 317
a 112 7
a 112 186
a 112 187
a 112 188
a 112 189
a 112 332
a 112 190
a 112 193
a 112 194
a 112 196
a 112 197
a 112 198
a 112 199
a 112 200
a 112 201
a 112 202
a 112 203
a 112 205
a 112 207
a 112 208
a 112 340
a 112 148
a 112 395
a 112 342
a 112 213
a 112 214
a 112 344
a 112 216
a 112 217
a 112 346
a 112 149
a 112 348
a 112 64
a 112 65
a 112 66
a 112 123
a 112 124
a 112 68
a 112 69
a 112 70
a 112 72
a 112 383
a 112 73
a 112 74
a 112 77
a 112 78
a 112 81
a 112 82
a 112 83
a 112 84
a 112 86
a 112 10
a 112 126
a 112 95
a 112 102
a 112 151
a 112 397
a 112 218
a 112 377
a 112 378
a 112 139
a 112 443
a 112 444
a 112 219
a 112 220
a 112 386
a 112 350
a 112 446
a 112 391
a 112 104
a 112 222
a 112 223
a 112 224
a 112 225
a 112 12
a 112 229
a 112 448
a 112 230
a 112 398
a 112 231
a 112 399
a 112 400
a 112 401
a 112 402
a 112 451
a 112 141
a 112 142
a 112 105
a 112 232
a 112 154
a 112 155
a 112 106
a 112 157
a 112 158
a 112 107
a 112 234
a 112 14
a 112 15
a 112 403
a 112 133
a 112 134
a 112 484
a 112 16
a 112 159
a 112 404
a 112 160
a 112 405
a 112 452
a 112 453
a 112 454
a 112 17
a 112 18
a 112 19
a 112 96
a 112 235
a 112 352
a 112 20
a 112 236
a 112 239
a 112 97
a 112 108
a 112 98
a 112 143
a 112 240
a 112 21
a 112 241
a 112 242
a 112 22
a 112 353
a 112 127
a 112 128
a 112 23
a 112 392
a 112 243
a 112 161
a 112 459
a 112 164
a 112 109
a 112 244
a 112 356
a 112 248
a 112 249
a 112 250
a 112 251
a 112 252
a 112 253
a 112 254
a 112 255
a 112 256
a 112 26
a 112 260
a 112 263
a 112 264
a 112 265
a 112 266
a 112 363
a 112 129
a 112 365
a 112 407
a 112 267
a 112 268
a 112 27
a 112 269
a 112 408
a 112 270
a 112 271
a 112 272
a 112 110
a 112 28
a 112 273
a 112 274
a 112 366
a 112 30
a 112 275
a 112 367
a 112 167
a 112 276
a 112 168
a 112 31
a 112 169
a 112 277
a 112 325
a 112 409
a 112 410
a 112 326
a 112 327
a 112 328
a 112 278
a 112 368
a 112 279
a 112 329
a 112 384
a 112 412
a 112 370
a 112 280
a 112 281
a 112 282
a 112 330
a 112 283
a 112 32
a 112 33
a 112 34
a 112 284
a 112 417
a 112 170
a 112 285
a 112 372
a 112 286
a 112 287
a 112 288
a 112 289
a 112 290
a 112 419
a 112 373
a 112 420
a 112 421
a 112 422
a 112 35
a 112 291
a 112 292
a 112 111
a 112 424
a 112 293
a 112 294
a 112 295
a 112 296
a 112 297
a 112 36
a 112 425
a 112 37
a 112 171
a 112 298
a 112 426
a 112 299
a 112 38
a 112 300
a 112 172
a 112 301
a 112 302
a 112 303
a 112 304
a 112 471
a 112 472
a 112 305
a 112 306
a 112 307
a 112 427
a 112 144
a 112 394
a 112 374
a 112 174
a 112 428
a 112 429
a 112 119
a 112 132
a 112 147
a 112 316
a 112 80
a 112 138
a 112 91
a 112 101
a 112 150
a 112 441
a 112 103
a 112 221
a 112 379
a 112 450
a 112 140
a 112 319
a 112 237
a 112 320
a 112 162
a 112 25
a 112 460
a 112 261
a 112 406
a 112 323
a 112 324
a 112 130
a 112 29
a 112 414
a 112 175
a 112 375
a 112 176
a 112 430
a 112 431
a 112 308
a 112 135
a 112 177
a 112 178
a 112 179
a 112 136
a 112 474
a 112 39
a 112 309
a 112 40
a 112 41
a 112 113
a 112 42
a 112 43
a 112 44
a 112 45
a 112 180
a 112 46
a 112 114
a 112 47
a 112 48
a 112 49
a 112 115
a 112 50
a 112 51
a 112 52
a 112 53
a 112 54
a 112 55
a 112 181
a 112 56
a 112 57
a 112 58
a 112 59
a 112 60
a 112 311
a 112 99
a 112 183
a 112 61
a 112 396
a 112 62
a 112 184
a 112 63
a 112 185
a 112 432
a 112 433
a 112 434
a 112 435
a 112 182
a 112 312
a 112 116
a 112 385
a 112 313
a 112 476
a 112 436
a 39 2
a 39 5
a 39 3
a 39 117
a 39 1
a 39 100
a 39 118
a 39 119
a 39 120
a 39 121
a 39 6
a 39 7
a 39 186
a 39 187
a 39 188
a 39 189
a 39 332
a 39 190
a 39 191
a 39 192
a 39 193
a 39 194
a 39 195
a 39 196
a 39 333
a 39 197
a 39 198
a 39 199
a 39 200
a 39 201
a 39 203
a 39 205
a 39 206
a 39 337
a 39 338
a 39 207
a 39 208
a 39 209
a 39 340
a 39 148
a 39 341
a 39 9
a 39 395
a 39 342
a 39 438
a 39 210
a 39 211
a 39 212
a 39 213
a 39 343
a 39 214
a 39 215
a 39 344
a 39 345
a 39 346
a 39 223
a 39 224
a 39 228
a 39 381
a 39 12
a 39 229
a 39 230
a 39 97
a 39 98
a 39 143
a 39 128
a 39 247
a 39 165
a 39 248
a 39 250
a 39 255
a 39 256
a 39 26
a 39 362
a 39 260
a 39 261
a 39 263
a 39 264
a 39 406
a 39 265
a 39 363
a 39 269
a 39 30
a 39 367
a 39 372
a 39 421
a 39 468
a 39 423
a 39 292
a 39 294
a 39 38
a 39 305
a 39 306
a 39 307
a 39 112
a 39 175
a 39 375
a 39 430
a 39 132
a 39 84
a 39 10
a 39 91
a 39 101
a 39 102
a 39 151
a 39 218
a 39 441
a 39 349
a 39 378
a 39 139
a 39 219
a 39 220
a 39 350
a 39 483
a 39 104
a 39 222
a 39 13
a 39 105
a 39 232
a 39 155
a 39 106
a 39 107
a 39 134
a 39 16
a 39 17
a 39 96
a 39 236
a 39 239
a 39 320
a 39 240
a 39 21
a 39 22
a 39 127
a 39 460
a 39 129
a 39 110
a 39 167
a 39 34
a 39 111
a 39 394
a 39 177
a 39 40
a 39 41
a 39 113
a 39 42
a 39 43
a 39 44
a 39 46
a 39 114
a 39 47
a 39 48
a 39 49
a 39 115
a 39 50
a 39 51
a 39 52
a 39 53
a 39 54
a 39 55
a 39 181
a 39 56
a 39 57
a 39 58
a 39 59
a 39 60
a 39 99
a 39 61
a 39 62
a 39 63
a 39 435
a 39 182
a 39 312
a 39 116
a 39 183
a 39 385
a 39 436
a 39 184
a 40 2
a 40 5
a 40 3
a 40 117
a 40 1
a 40 100
a 40 118
a 40 119
a 40 120
a 40 146
a 40 121
a 40 147
a 40 314
a 40 315
a 40 316
a 40 318
a 40 317
a 40 7
a 40 8
a 40 186
a 40 346
a 40 348
a 40 65
a 40 123
a 40 68
a 40 72
a 40 151
a 40 441
a 40 349
a 40 11
a 40 139
a 40 220
a 40 350
a 40 391
a 40 221
a 40 104
a 40 12
a 40 13
a 40 447
a 40 230
a 40 231
a 40 449
a 40 400
a 40 401
a 40 402
a 40 140
a 40 141
a 40 142
a 40 107
a 40 134
a 40 484
a 40 453
a 40 17
a 40 96
a 40 20
a 40 236
a 40 97
a 40 143
a 40 240
a 40 21
a 40 241
a 40 127
a 40 128
a 40 392
a 40 243
a 40 161
a 40 459
a 40 162
a 40 164
a 40 109
a 40 244
a 40 248
a 40 249
a 40 250
a 40 252
a 40 253
a 40 24
a 40 255
a 40 261
a 40 406
a 40 265
a 40 27
a 40 110
a 40 366
a 40 167
a 40 31
a 40 169
a 40 277
a 40 279
a 40 280
a 40 32
a 40 33
a 40 34
a 40 284
a 40 170
a 40 285
a 40 290
a 40 420
a 40 422
a 40 291
a 40 292
a 40 294
a 40 297
a 40 171
a 40 38
a 40 300
a 40 301
a 40 302
a 40 173
a 40 307
a 40 427
a 40 144
a 40 394
a 40 174
a 40 428
a 40 429
a 40 112
a 40 175
a 40 375
a 40 430
a 40 473
a 40 135
a 40 177
a 40 178
a 40 179
a 40 474
a 40 39
a 40 309
a 40 132
a 40 137
a 40 6
a 40 148
a 40 64
a 40 66
a 40 80
a 40 84
a 40 138
a 40 10
a 40 101
a 40 102
a 40 397
a 40 218
a 40 477
a 40 378
a 40 103
a 40 219
a 40 386
a 40 222
a 40 379
a 40 225
a 40 105
a 40 232
a 40 154
a 40 155
a 40 106
a 40 158
a 40 14
a 40 133
a 40 16
a 40 159
a 40 319
a 40 352
a 40 237
a 40 238
a 40 239
a 40 98
a 40 22
a 40 251
a 40 25
a 40 256
a 40 26
a 40 460
a 40 263
a 40 264
a 40 266
a 40 323
a 40 363
a 40 129
a 40 271
a 40 28
a 40 273
a 40 274
a 40 30
a 40 368
a 40 329
a 40 282
a 40 393
a 40 286
a 40 287
a 40 288
a 40 289
a 40 35
a 40 111
a 40 296
a 40 471
a 40 176
a 40 308
a 40 136
a 40 432
a 40 41
a 40 113
a 40 42
a 40 43
a 40 44
a 40 45
a 40 46
a 40 114
a 40 47
a 40 48
a 40 49
a 40 115
a 40 50
a 40 51
a 40 52
a 40 53
a 40 54
a 40 55
a 40 181
a 40 56
a 40 57
a 40 58
a 40 59
a 40 60
a 40 99
a 40 183
a 40 61
a 40 396
a 40 62
a 40 184
a 40 63
a 40 185
a 40 434
a 40 435
a 40 182
a 40 312
a 40 116
a 40 385
a 40 313
a 40 476
a 41 2
a 41 5
a 41 3
a 41 4
a 41 117
a 41 1
a 41 100
a 41 131
a 41 118
a 41 119
a 41 145
a 41 120
a 41 146
a 41 132
a 41 121
a 41 147
a 41 137
a 41 6
a 41 314
a 41 315
a 41 316
a 41 318
a 41 317
a 41 7
a 41 8
a 41 186
a 41 187
a 41 188
a 41 189
a 41 332
a 41 190
a 41 191
a 41 192
a 41 193
a 41 194
a 41 195
a 41 196
a 41 333
a 41 197
a 41 198
a 41 199
a 41 200
a 41 334
a 41 201
a 41 202
a 41 335
a 41 336
a 41 203
a 41 204
a 41 205
a 41 206
a 41 337
a 41 338
a 41 437
a 41 207
a 41 208
a 41 209
a 41 339
a 41 340
a 41 148
a 41 341
a 41 9
a 41 395
a 41 342
a 41 438
a 41 210
a 41 211
a 41 212
a 41 213
a 41 343
a 41 214
a 41 215
a 41 344
a 41 216
a 41 345
a 41 217
a 41 346
a 41 439
a 41 149
a 41 347
a 41 348
a 41 64
a 41 65
a 41 66
a 41 382
a 41 122
a 41 123
a 41 67
a 41 124
a 41 68
a 41 125
a 41 69
a 41 70
a 41 71
a 41 72
a 41 383
a 41 73
a 41 74
a 41 75
a 41 76
a 41 77
a 41 78
a 41 79
a 41 80
a 41 81
a 41 82
a 41 83
a 41 84
a 41 85
a 41 387
a 41 86
a 41 87
a 41 138
a 41 10
a 41 126
a 41 88
a 41 89
a 41 90
a 41 91
a 41 101
a 41 92
a 41 93
a 41 94
a 41 95
a 41 102
a 41 150
a 41 388
a 41 389
a 41 151
a 41 397
a 41 218
a 41 390
a 41 377
a 41 441
a 41 349
a 41 477
a 41 378
a 41 442
a 41 11
a 41 139
a 41 103
a 41 443
a 41 444
a 41 482
a 41 219
a 41 220
a 41 386
a 41 350
a 41 152
a 41 153
a 41 445
a 41 446
a 41 391
a 41 221
a 41 104
a 41 222
a 41 379
a 41 223
a 41 224
a 41 225
a 41 226
a 41 227
a 41 380
a 41 228
a 41 381
a 41 12
a 41 13
a 41 229
a 41 447
a 41 448
a 41 230
a 41 398
a 41 231
a 41 449
a 41 399
a 41 400
a 41 401
a 41 402
a 41 450
a 41 451
a 41 140
a 41 141
a 41 142
a 41 105
a 41 232
a 41 233
a 41 154
a 41 155
a 41 106
a 41 156
a 41 157
a 41 158
a 41 107
a 41 234
a 41 14
a 41 15
a 41 403
a 41 133
a 41 134
a 41 484
a 41 16
a 41 159
a 41 404
a 41 160
a 41 405
a 41 452
a 41 453
a 41 454
a 41 17
a 41 18
a 41 351
a 41 19
a 41 319
a 41 96
a 41 235
a 41 352
a 41 455
a 41 20
a 41 236
a 41 237
a 41 238
a 41 239
a 41 97
a 41 108
a 41 98
a 41 320
a 41 143
a 41 240
a 41 21
a 41 241
a 41 242
a 41 22
a 41 353
a 41 485
a 41 127
a 41 128
a 41 23
a 41 392
a 41 456
a 41 243
a 41 161
a 41 459
a 41 162
a 41 163
a 41 164
a 41 109
a 41 244
a 41 245
a 41 354
a 41 246
a 41 355
a 41 356
a 41 357
a 41 358
a 41 247
a 41 165
a 41 248
a 41 249
a 41 250
a 41 166
a 41 359
a 41 321
a 41 251
a 41 252
a 41 253
a 41 24
a 41 254
a 41 360
a 41 322
a 41 255
a 41 361
a 41 25
a 41 479
a 41 480
a 41 256
a 41 26
a 41 460
a 41 362
a 41 257
a 41 258
a 41 259
a 41 260
a 41 261
a 41 262
a 41 263
a 41 264
a 41 406
a 41 265
a 41 266
a 41 323
a 41 363
a 41 461
a 41 129
a 41 324
a 41 364
a 41 365
a 41 407
a 41 267
a 41 268
a 41 27
a 41 269
a 41 408
a 41 462
a 41 270
a 41 271
a 41 272
a 41 130
a 41 110
a 41 463
a 41 28
a 41 29
a 41 273
a 41 274
a 41 366
a 41 30
a 41 464
a 41 275
a 41 367
a 41 167
a 41 276
a 41 168
a 41 31
a 41 169
a 41 277
a 41 325
a 41 409
a 41 410
a 41 326
a 41 327
a 41 328
a 41 278
a 41 368
a 41 279
a 41 329
a 41 369
a 41 411
a 41 384
a 41 412
a 41 413
a 41 414
a 41 370
a 41 280
a 41 281
a 41 282
a 41 330
a 41 371
a 41 283
a 41 415
a 41 32
a 41 33
a 41 34
a 41 284
a 41 416
a 41 417
a 41 418
a 41 170
a 41 393
a 41 465
a 41 285
a 41 466
a 41 372
a 41 286
a 41 287
a 41 288
a 41 289
a 41 290
a 41 331
a 41 467
a 41 419
a 41 373
a 41 420
a 41 421
a 41 422
a 41 468
a 41 423
a 41 35
a 41 291
a 41 292
a 41 111
a 41 424
a 41 293
a 41 294
a 41 295
a 41 296
a 41 297
a 41 36
a 41 470
a 41 425
a 41 37
a 41 171
a 41 298
a 41 426
a 41 299
a 41 38
a 41 300
a 41 172
a 41 301
a 41 302
a 41 303
a 41 304
a 41 471
a 41 472
a 41 305
a 41 173
a 41 306
a 41 307
a 41 427
a 41 144
a 41 394
a 41 374
a 41 174
a 41 428
a 41 429
a 41 112
a 41 175
a 41 375
a 41 176
a 41 430
a 41 431
a 41 308
a 41 473
a 41 135
a 41 177
a 41 178
a 41 179
a 41 136
a 41 474
a 41 475
a 41 432
a 41 39
a 41 376
a 41 433
a 41 309
a 41 40
a 41 440
a 41 113
a 41 42
a 41 43
a 41 44
a 41 45
a 41 180
a 41 46
a 41 114
a 41 47
a 41 48
a 41 49
a 41 115
a 41 50
a 41 51
a 41 52
a 41 53
a 41 54
a 41 55
a 41 181
a 41 56
a 41 57
a 41 58
a 41 59
a 41 60
a 41 311
a 41 99
a 41 183
a 41 61
a 41 62
a 41 436
a 41 184
a 41 63
a 41 185
a 41 434
a 41 310
a 41 435
a 41 182
a 41 312
a 41 116
a 41 396
a 41 385
a 41 313
a 113 2
a 113 3
a 113 100
a 113 121
a 113 147
a 113 137
a 113 6
a 113 314
a 113 315
a 113 316
a 113 318
a 113 317
a 113 7
a 113 8
a 113 186
a 113 187
a 113 188
a 113 189
a 113 332
a 113 190
a 113 191
a 113 193
a 113 194
a 113 195
a 113 196
a 113 197
a 113 198
a 113 199
a 113 200
a 113 201
a 113 202
a 113 203
a 113 204
a 113 205
a 113 337
a 113 437
a 113 207
a 113 208
a 113 209
a 113 340
a 113 148
a 113 395
a 113 342
a 113 212
a 113 213
a 113 214
a 113 344
a 113 216
a 113 345
a 113 217
a 113 346
a 113 439
a 113 149
a 113 347
a 113 348
a 113 64
a 113 65
a 113 66
a 113 122
a 113 123
a 113 67
a 113 124
a 113 68
a 113 125
a 113 69
a 113 70
a 113 71
a 113 72
a 113 383
a 113 73
a 113 74
a 113 75
a 113 76
a 113 77
a 113 78
a 113 79
a 113 80
a 113 81
a 113 82
a 113 83
a 113 84
a 113 85
a 113 387
a 113 86
a 113 87
a 113 138
a 113 10
a 113 126
a 113 88
a 113 89
a 113 90
a 113 91
a 113 101
a 113 92
a 113 93
a 113 440
a 113 94
a 113 95
a 113 102
a 113 150
a 113 388
a 113 389
a 113 151
a 113 397
a 113 218
a 113 390
a 113 377
a 113 441
a 113 349
a 113 477
a 113 378
a 113 442
a 113 11
a 113 139
a 113 103
a 113 443
a 113 444
a 113 482
a 113 219
a 113 220
a 113 386
a 113 350
a 113 152
a 113 153
a 113 445
a 113 446
a 113 483
a 113 391
a 113 221
a 113 104
a 113 222
a 113 379
a 113 223
a 113 224
a 113 225
a 113 226
a 113 227
a 113 380
a 113 228
a 113 381
a 113 12
a 113 13
a 113 229
a 113 447
a 113 448
a 113 230
a 113 398
a 113 231
a 113 449
a 113 399
a 113 400
a 113 401
a 113 402
a 113 450
a 113 451
a 113 140
a 113 141
a 113 142
a 113 105
a 113 232
a 113 233
a 113 154
a 113 155
a 113 106
a 113 156
a 113 157
a 113 158
a 113 107
a 113 234
a 113 14
a 113 15
a 113 403
a 113 133
a 113 134
a 113 484
a 113 16
a 113 159
a 113 404
a 113 160
a 113 405
a 113 452
a 113 453
a 113 454
a 113 17
a 113 18
a 113 351
a 113 19
a 113 319
a 113 96
a 113 235
a 113 352
a 113 455
a 113 20
a 113 236
a 113 237
a 113 238
a 113 239
a 113 97
a 113 108
a 113 98
a 113 320
a 113 143
a 113 240
a 113 21
a 113 241
a 113 242
a 113 22
a 113 353
a 113 485
a 113 127
a 113 128
a 113 23
a 113 392
a 113 456
a 113 243
a 113 457
a 113 161
a 113 459
a 113 162
a 113 164
a 113 109
a 113 244
a 113 245
a 113 354
a 113 246
a 113 355
a 113 356
a 113 357
a 113 358
a 113 247
a 113 165
a 113 248
a 113 249
a 113 250
a 113 166
a 113 359
a 113 321
a 113 251
a 113 252
a 113 253
a 113 24
a 113 254
a 113 360
a 113 322
a 113 255
a 113 361
a 113 25
a 113 479
a 113 480
a 113 256
a 113 26
a 113 460
a 113 362
a 113 257
a 113 258
a 113 259
a 113 260
a 113 261
a 113 262
a 113 263
a 113 264
a 113 406
a 113 265
a 113 266
a 113 323
a 113 363
a 113 461
a 113 129
a 113 324
a 113 364
a 113 365
a 113 407
a 113 267
a 113 268
a 113 27
a 113 269
a 113 408
a 113 462
a 113 270
a 113 271
a 113 272
a 113 130
a 113 110
a 113 463
a 113 28
a 113 29
a 113 273
a 113 274
a 113 366
a 113 30
a 113 464
a 113 275
a 113 367
a 113 167
a 113 276
a 113 168
a 113 31
a 113 169
a 113 277
a 113 325
a 113 409
a 113 410
a 113 326
a 113 327
a 113 328
a 113 278
a 113 368
a 113 279
a 113 329
a 113 369
a 113 411
a 113 384
a 113 412
a 113 413
a 113 414
a 113 370
a 113 280
a 113 281
a 113 282
a 113 330
a 113 371
a 113 283
a 113 415
a 113 32
a 113 33
a 113 34
a 113 284
a 113 416
a 113 417
a 113 418
a 113 170
a 113 393
a 113 465
a 113 285
a 113 466
a 113 372
a 113 286
a 113 287
a 113 288
a 113 289
a 113 290
a 113 331
a 113 467
a 113 419
a 113 373
a 113 420
a 113 421
a 113 422
a 113 468
a 113 469
a 113 423
a 113 35
a 113 291
a 113 292
a 113 111
a 113 424
a 113 293
a 113 294
a 113 295
a 113 296
a 113 297
a 113 36
a 113 425
a 113 37
a 113 171
a 113 298
a 113 426
a 113 299
a 113 38
a 113 300
a 113 172
a 113 301
a 113 302
a 113 303
a 113 304
a 113 471
a 113 472
a 113 305
a 113 173
a 113 306
a 113 307
a 113 427
a 113 144
a 113 394
a 113 374
a 113 174
a 113 428
a 113 429
a 113 112
a 113 175
a 113 375
a 113 176
a 113 430
a 113 431
a 113 308
a 113 473
a 113 135
a 113 177
a 113 179
a 113 136
a 113 474
a 113 475
a 113 432
a 113 39
a 113 376
a 113 433
a 113 309
a 113 40
a 113 41
a 113 343
a 113 470
a 113 178
a 113 42
a 113 43
a 113 44
a 113 45
a 113 180
a 113 46
a 113 114
a 113 47
a 113 48
a 113 49
a 113 115
a 113 50
a 113 51
a 113 52
a 113 53
a 113 54
a 113 55
a 113 181
a 113 56
a 113 57
a 113 58
a 113 59
a 113 60
a 113 99
a 113 182
a 113 312
a 113 116
a 113 183
a 113 61
a 113 62
a 113 184
a 113 63
a 113 185
a 113 434
a 113 435
a 113 311
a 113 476
a 113 436
a 42 2
a 42 5
a 42 3
a 42 4
a 42 117
a 42 1
a 42 100
a 42 131
a 42 118
a 42 119
a 42 145
a 42 120
a 42 146
a 42 132
a 42 121
a 42 147
a 42 137
a 42 6
a 42 314
a 42 315
a 42 316
a 42 318
a 42 317
a 42 7
a 42 8
a 42 186
a 42 187
a 42 188
a 42 189
a 42 332
a 42 190
a 42 191
a 42 192
a 42 193
a 42 194
a 42 195
a 42 196
a 42 333
a 42 197
a 42 198
a 42 199
a 42 200
a 42 334
a 42 201
a 42 202
a 42 335
a 42 336
a 42 203
a 42 204
a 42 205
a 42 206
a 42 337
a 42 338
a 42 437
a 42 207
a 42 208
a 42 209
a 42 339
a 42 340
a 42 148
a 42 341
a 42 9
a 42 395
a 42 342
a 42 438
a 42 210
a 42 211
a 42 212
a 42 213
a 42 343
a 42 214
a 42 215
a 42 344
a 42 216
a 42 345
a 42 217
a 42 346
a 42 439
a 42 149
a 42 347
a 42 348
a 42 64
a 42 65
a 42 66
a 42 382
a 42 122
a 42 123
a 42 67
a 42 124
a 42 68
a 42 125
a 42 69
a 42 70
a 42 71
a 42 72
a 42 383
a 42 73
a 42 74
a 42 75
a 42 76
a 42 77
a 42 78
a 42 79
a 42 80
a 42 81
a 42 82
a 42 83
a 42 84
a 42 85
a 42 387
a 42 86
a 42 87
a 42 138
a 42 10
a 42 126
a 42 88
a 42 89
a 42 90
a 42 91
a 42 101
a 42 92
a 42 93
a 42 440
a 42 94
a 42 95
a 42 102
a 42 150
a 42 388
a 42 389
a 42 151
a 42 397
a 42 218
a 42 390
a 42 377
a 42 441
a 42 349
a 42 477
a 42 378
a 42 442
a 42 11
a 42 139
a 42 103
a 42 443
a 42 444
a 42 482
a 42 481
a 42 219
a 42 220
a 42 386
a 42 350
a 42 152
a 42 153
a 42 445
a 42 446
a 42 483
a 42 391
a 42 221
a 42 104
a 42 222
a 42 379
a 42 223
a 42 224
a 42 225
a 42 226
a 42 227
a 42 380
a 42 228
a 42 381
a 42 12
a 42 13
a 42 229
a 42 447
a 42 448
a 42 230
a 42 398
a 42 231
a 42 449
a 42 399
a 42 400
a 42 401
a 42 402
a 42 450
a 42 451
a 42 140
a 42 141
a 42 142
a 42 105
a 42 232
a 42 233
a 42 154
a 42 155
a 42 106
a 42 156
a 42 157
a 42 158
a 42 107
a 42 234
a 42 14
a 42 15
a 42 403
a 42 133
a 42 134
a 42 484
a 42 16
a 42 159
a 42 404
a 42 160
a 42 405
a 42 452
a 42 453
a 42 454
a 42 17
a 42 18
a 42 351
a 42 19
a 42 319
a 42 96
a 42 235
a 42 352
a 42 455
a 42 20
a 42 236
a 42 237
a 42 238
a 42 239
a 42 97
a 42 108
a 42 98
a 42 320
a 42 143
a 42 240
a 42 21
a 42 241
a 42 242
a 42 22
a 42 353
a 42 485
a 42 127
a 42 128
a 42 23
a 42 392
a 42 456
a 42 243
a 42 457
a 42 458
a 42 161
a 42 459
a 42 162
a 42 163
a 42 164
a 42 109
a 42 244
a 42 245
a 42 354
a 42 246
a 42 355
a 42 356
a 42 357
a 42 358
a 42 247
a 42 165
a 42 248
a 42 249
a 42 250
a 42 166
a 42 359
a 42 321
a 42 251
a 42 252
a 42 253
a 42 24
a 42 254
a 42 360
a 42 322
a 42 255
a 42 361
a 42 25
a 42 479
a 42 480
a 42 256
a 42 26
a 42 460
a 42 362
a 42 257
a 42 258
a 42 259
a 42 260
a 42 261
a 42 262
a 42 263
a 42 264
a 42 406
a 42 265
a 42 266
a 42 323
a 42 363
a 42 461
a 42 129
a 42 324
a 42 364
a 42 365
a 42 407
a 42 267
a 42 268
a 42 27
a 42 269
a 42 408
a 42 462
a 42 270
a 42 271
a 42 272
a 42 130
a 42 110
a 42 463
a 42 28
a 42 29
a 42 273
a 42 274
a 42 366
a 42 30
a 42 464
a 42 275
a 42 367
a 42 167
a 42 276
a 42 168
a 42 31
a 42 169
a 42 277
a 42 325
a 42 409
a 42 410
a 42 326
a 42 327
a 42 328
a 42 278
a 42 368
a 42 279
a 42 329
a 42 369
a 42 411
a 42 384
a 42 412
a 42 413
a 42 414
a 42 370
a 42 280
a 42 281
a 42 282
a 42 330
a 42 371
a 42 283
a 42 415
a 42 32
a 42 33
a 42 34
a 42 284
a 42 416
a 42 417
a 42 418
a 42 170
a 42 393
a 42 465
a 42 285
a 42 466
a 42 372
a 42 286
a 42 287
a 42 288
a 42 289
a 42 290
a 42 331
a 42 467
a 42 419
a 42 373
a 42 420
a 42 421
a 42 422
a 42 468
a 42 469
a 42 423
a 42 35
a 42 291
a 42 292
a 42 111
a 42 424
a 42 293
a 42 294
a 42 295
a 42 296
a 42 297
a 42 36
a 42 470
a 42 425
a 42 37
a 42 171
a 42 298
a 42 426
a 42 299
a 42 38
a 42 300
a 42 172
a 42 301
a 42 302
a 42 303
a 42 304
a 42 471
a 42 472
a 42 305
a 42 173
a 42 306
a 42 307
a 42 427
a 42 144
a 42 394
a 42 374
a 42 174
a 42 428
a 42 429
a 42 112
a 42 175
a 42 375
a 42 176
a 42 430
a 42 431
a 42 308
a 42 473
a 42 135
a 42 177
a 42 178
a 42 179
a 42 136
a 42 474
a 42 475
a 42 432
a 42 39
a 42 376
a 42 433
a 42 309
a 42 40
a 42 41
a 42 113
a 42 43
a 42 44
a 42 45
a 42 180
a 42 46
a 42 114
a 42 47
a 42 48
a 42 49
a 42 115
a 42 50
a 42 51
a 42 52
a 42 53
a 42 54
a 42 55
a 42 181
a 42 56
a 42 57
a 42 58
a 42 59
a 42 60
a 42 99
a 42 116
a 42 183
a 42 61
a 42 62
a 42 184
a 42 63
a 42 185
a 42 434
a 42 310
a 42 435
a 42 311
a 42 182
a 42 312
a 42 396
a 42 385
a 42 313
a 42 476
a 42 436
a 43 2
a 43 5
a 43 3
a 43 4
a 43 117
a 43 1
a 43 100
a 43 131
a 43 118
a 43 119
a 43 145
a 43 120
a 43 146
a 43 132
a 43 121
a 43 147
a 43 137
a 43 6
a 43 314
a 43 315
a 43 316
a 43 318
a 43 317
a 43 7
a 43 8
a 43 186
a 43 187
a 43 188
a 43 189
a 43 332
a 43 190
a 43 191
a 43 192
a 43 193
a 43 194
a 43 195
a 43 196
a 43 333
a 43 197
a 43 198
a 43 199
a 43 200
a 43 334
a 43 201
a 43 202
a 43 335
a 43 336
a 43 203
a 43 204
a 43 205
a 43 206
a 43 337
a 43 338
a 43 437
a 43 207
a 43 208
a 43 209
a 43 339
a 43 340
a 43 148
a 43 341
a 43 9
a 43 395
a 43 342
a 43 438
a 43 210
a 43 212
a 43 213
a 43 343
a 43 214
a 43 215
a 43 344
a 43 216
a 43 345
a 43 217
a 43 346
a 43 149
a 43 347
a 43 64
a 43 65
a 43 66
a 43 382
a 43 122
a 43 123
a 43 67
a 43 124
a 43 68
a 43 69
a 43 70
a 43 71
a 43 72
a 43 383
a 43 73
a 43 74
a 43 75
a 43 76
a 43 77
a 43 78
a 43 79
a 43 80
a 43 81
a 43 82
a 43 83
a 43 84
a 43 85
a 43 387
a 43 86
a 43 87
a 43 138
a 43 10
a 43 126
a 43 88
a 43 89
a 43 90
a 43 91
a 43 101
a 43 92
a 43 93
a 43 94
a 43 95
a 43 102
a 43 388
a 43 389
a 43 151
a 43 218
a 43 390
a 43 377
a 43 441
a 43 349
a 43 477
a 43 378
a 43 442
a 43 11
a 43 139
a 43 103
a 43 443
a 43 219
a 43 220
a 43 350
a 43 446
a 43 391
a 43 221
a 43 104
a 43 222
a 43 379
a 43 223
a 43 224
a 43 225
a 43 226
a 43 227
a 43 380
a 43 228
a 43 381
a 43 12
a 43 13
a 43 229
a 43 448
a 43 230
a 43 398
a 43 231
a 43 449
a 43 399
a 43 400
a 43 401
a 43 402
a 43 140
a 43 141
a 43 142
a 43 105
a 43 232
a 43 233
a 43 154
a 43 155
a 43 106
a 43 156
a 43 157
a 43 158
a 43 107
a 43 234
a 43 14
a 43 15
a 43 403
a 43 133
a 43 134
a 43 16
a 43 159
a 43 17
a 43 18
a 43 351
a 43 19
a 43 319
a 43 96
a 43 235
a 43 352
a 43 455
a 43 20
a 43 236
a 43 237
a 43 238
a 43 239
a 43 97
a 43 108
a 43 98
a 43 320
a 43 143
a 43 240
a 43 21
a 43 241
a 43 242
a 43 22
a 43 353
a 43 485
a 43 127
a 43 128
a 43 23
a 43 392
a 43 456
a 43 243
a 43 164
a 43 109
a 43 244
a 43 245
a 43 354
a 43 246
a 43 355
a 43 356
a 43 357
a 43 358
a 43 247
a 43 165
a 43 248
a 43 249
a 43 250
a 43 166
a 43 359
a 43 321
a 43 251
a 43 252
a 43 253
a 43 24
a 43 254
a 43 360
a 43 255
a 43 361
a 43 25
a 43 479
a 43 256
a 43 26
a 43 460
a 43 362
a 43 257
a 43 258
a 43 259
a 43 260
a 43 261
a 43 262
a 43 263
a 43 264
a 43 406
a 43 265
a 43 266
a 43 129
a 43 324
a 43 364
a 43 365
a 43 407
a 43 267
a 43 268
a 43 27
a 43 269
a 43 408
a 43 462
a 43 270
a 43 271
a 43 272
a 43 130
a 43 110
a 43 28
a 43 273
a 43 274
a 43 366
a 43 30
a 43 464
a 43 275
a 43 367
a 43 167
a 43 276
a 43 168
a 43 31
a 43 169
a 43 277
a 43 325
a 43 409
a 43 410
a 43 326
a 43 327
a 43 328
a 43 278
a 43 368
a 43 279
a 43 384
a 43 412
a 43 370
a 43 280
a 43 281
a 43 282
a 43 330
a 43 283
a 43 32
a 43 33
a 43 34
a 43 284
a 43 170
a 43 285
a 43 372
a 43 286
a 43 287
a 43 288
a 43 289
a 43 290
a 43 331
a 43 467
a 43 373
a 43 420
a 43 421
a 43 422
a 43 423
a 43 35
a 43 291
a 43 292
a 43 111
a 43 424
a 43 293
a 43 294
a 43 296
a 43 297
a 43 36
a 43 470
a 43 37
a 43 298
a 43 426
a 43 299
a 43 38
a 43 300
a 43 172
a 43 301
a 43 302
a 43 303
a 43 304
a 43 471
a 43 472
a 43 305
a 43 173
a 43 306
a 43 307
a 43 427
a 43 144
a 43 394
a 43 374
a 43 429
a 43 112
a 43 375
a 43 176
a 43 430
a 43 431
a 43 308
a 43 135
a 43 177
a 43 178
a 43 136
a 43 432
a 43 39
a 43 376
a 43 433
a 43 309
a 43 40
a 43 41
a 43 113
a 43 42
a 43 152
a 43 153
a 43 160
a 43 463
a 43 29
a 43 174
a 43 179
a 43 44
a 43 45
a 43 180
a 43 46
a 43 114
a 43 47
a 43 48
a 43 49
a 43 115
a 43 50
a 43 51
a 43 52
a 43 53
a 43 54
a 43 55
a 43 181
a 43 56
a 43 57
a 43 58
a 43 59
a 43 60
a 43 99
a 43 182
a 43 183
a 43 61
a 43 62
a 43 436
a 43 184
a 43 63
a 43 434
a 43 310
a 43 435
a 43 311
a 43 312
a 43 116
a 43 313
a 43 476
a 44 2
a 44 5
a 44 3
a 44 4
a 44 117
a 44 1
a 44 100
a 44 119
a 44 120
a 44 121
a 44 147
a 44 137
a 44 6
a 44 314
a 44 315
a 44 316
a 44 318
a 44 317
a 44 7
a 44 8
a 44 186
a 44 187
a 44 188
a 44 189
a 44 332
a 44 190
a 44 191
a 44 192
a 44 193
a 44 194
a 44 195
a 44 196
a 44 333
a 44 197
a 44 198
a 44 199
a 44 200
a 44 201
a 44 202
a 44 336
a 44 203
a 44 204
a 44 205
a 44 206
a 44 337
a 44 338
a 44 437
a 44 207
a 44 208
a 44 209
a 44 340
a 44 148
a 44 341
a 44 9
a 44 395
a 44 342
a 44 438
a 44 210
a 44 212
a 44 213
a 44 343
a 44 214
a 44 215
a 44 344
a 44 216
a 44 345
a 44 217
a 44 346
a 44 439
a 44 149
a 44 347
a 44 348
a 44 64
a 44 65
a 44 66
a 44 382
a 44 122
a 44 123
a 44 67
a 44 124
a 44 68
a 44 125
a 44 69
a 44 70
a 44 71
a 44 72
a 44 383
a 44 73
a 44 74
a 44 75
a 44 76
a 44 77
a 44 78
a 44 79
a 44 80
a 44 81
a 44 82
a 44 83
a 44 84
a 44 85
a 44 387
a 44 86
a 44 87
a 44 138
a 44 10
a 44 126
a 44 88
a 44 89
a 44 90
a 44 91
a 44 101
a 44 92
a 44 93
a 44 440
a 44 94
a 44 95
a 44 102
a 44 150
a 44 388
a 44 389
a 44 151
a 44 397
a 44 218
a 44 390
a 44 377
a 44 441
a 44 478
a 44 349
a 44 477
a 44 378
a 44 442
a 44 11
a 44 139
a 44 103
a 44 443
a 44 444
a 44 482
a 44 219
a 44 220
a 44 386
a 44 350
a 44 153
a 44 445
a 44 446
a 44 483
a 44 391
a 44 221
a 44 104
a 44 222
a 44 379
a 44 223
a 44 224
a 44 225
a 44 226
a 44 227
a 44 380
a 44 228
a 44 381
a 44 12
a 44 13
a 44 229
a 44 447
a 44 448
a 44 230
a 44 398
a 44 231
a 44 449
a 44 399
a 44 400
a 44 401
a 44 402
a 44 450
a 44 451
a 44 140
a 44 141
a 44 142
a 44 105
a 44 232
a 44 233
a 44 154
a 44 155
a 44 106
a 44 156
a 44 157
a 44 158
a 44 107
a 44 234
a 44 14
a 44 15
a 44 403
a 44 133
a 44 134
a 44 484
a 44 16
a 44 159
a 44 404
a 44 160
a 44 405
a 44 452
a 44 453
a 44 454
a 44 17
a 44 18
a 44 351
a 44 19
a 44 319
a 44 96
a 44 235
a 44 352
a 44 455
a 44 20
a 44 236
a 44 237
a 44 238
a 44 239
a 44 97
a 44 108
a 44 98
a 44 320
a 44 143
a 44 240
a 44 21
a 44 241
a 44 242
a 44 22
a 44 353
a 44 485
a 44 127
a 44 128
a 44 23
a 44 392
a 44 243
a 44 457
a 44 161
a 44 459
a 44 162
a 44 164
a 44 109
a 44 244
a 44 245
a 44 354
a 44 246
a 44 355
a 44 356
a 44 357
a 44 358
a 44 247
a 44 165
a 44 248
a 44 249
a 44 250
a 44 166
a 44 359
a 44 321
a 44 251
a 44 252
a 44 253
a 44 24
a 44 254
a 44 360
a 44 322
a 44 255
a 44 361
a 44 25
a 44 479
a 44 480
a 44 256
a 44 26
a 44 460
a 44 362
a 44 257
a 44 258
a 44 259
a 44 260
a 44 261
a 44 262
a 44 263
a 44 264
a 44 406
a 44 265
a 44 266
a 44 323
a 44 363
a 44 461
a 44 129
a 44 324
a 44 364
a 44 365
a 44 407
a 44 267
a 44 268
a 44 27
a 44 269
a 44 408
a 44 462
a 44 270
a 44 271
a 44 272
a 44 130
a 44 110
a 44 463
a 44 28
a 44 29
a 44 273
a 44 274
a 44 366
a 44 30
a 44 464
a 44 275
a 44 367
a 44 167
a 44 276
a 44 168
a 44 31
a 44 169
a 44 277
a 44 325
a 44 409
a 44 410
a 44 326
a 44 327
a 44 328
a 44 278
a 44 368
a 44 279
a 44 329
a 44 369
a 44 411
a 44 384
a 44 412
a 44 413
a 44 414
a 44 370
a 44 280
a 44 281
a 44 282
a 44 330
a 44 371
a 44 283
a 44 415
a 44 32
a 44 33
a 44 34
a 44 284
a 44 416
a 44 417
a 44 418
a 44 170
a 44 393
a 44 465
a 44 285
a 44 466
a 44 372
a 44 286
a 44 287
a 44 288
a 44 289
a 44 290
a 44 331
a 44 467
a 44 419
a 44 373
a 44 420
a 44 421
a 44 422
a 44 468
a 44 469
a 44 423
a 44 35
a 44 291
a 44 292
a 44 111
a 44 424
a 44 293
a 44 294
a 44 295
a 44 296
a 44 297
a 44 36
a 44 470
a 44 425
a 44 37
a 44 171
a 44 298
a 44 426
a 44 299
a 44 38
a 44 300
a 44 172
a 44 301
a 44 302
a 44 303
a 44 304
a 44 471
a 44 472
a 44 305
a 44 173
a 44 306
a 44 307
a 44 427
a 44 144
a 44 394
a 44 374
a 44 174
a 44 428
a 44 429
a 44 112
a 44 175
a 44 375
a 44 176
a 44 430
a 44 431
a 44 308
a 44 473
a 44 135
a 44 177
a 44 178
a 44 179
a 44 136
a 44 474
a 44 475
a 44 432
a 44 39
a 44 376
a 44 433
a 44 309
a 44 40
a 44 41
a 44 113
a 44 42
a 44 43
a 44 131
a 44 163
a 44 45
a 44 180
a 44 46
a 44 114
a 44 47
a 44 48
a 44 49
a 44 115
a 44 50
a 44 51
a 44 52
a 44 53
a 44 54
a 44 55
a 44 181
a 44 56
a 44 57
a 44 58
a 44 59
a 44 60
a 44 311
a 44 99
a 44 182
a 44 183
a 44 61
a 44 62
a 44 184
a 44 63
a 44 185
a 44 434
a 44 310
a 44 435
a 44 312
a 44 116
a 44 396
a 44 476
a 44 436
a 45 2
a 45 5
a 45 3
a 45 4
a 45 117
a 45 1
a 45 100
a 45 131
a 45 118
a 45 119
a 45 145
a 45 120
a 45 146
a 45 121
a 45 147
a 45 137
a 45 6
a 45 314
a 45 315
a 45 318
a 45 317
a 45 7
a 45 8
a 45 186
a 45 188
a 45 200
a 45 202
a 45 335
a 45 336
a 45 205
a 45 338
a 45 437
a 45 207
a 45 208
a 45 209
a 45 340
a 45 148
a 45 395
a 45 342
a 45 212
a 45 213
a 45 214
a 45 215
a 45 344
a 45 216
a 45 346
a 45 64
a 45 65
a 45 66
a 45 123
a 45 124
a 45 68
a 45 69
a 45 70
a 45 71
a 45 73
a 45 78
a 45 81
a 45 82
a 45 84
a 45 86
a 45 126
a 45 95
a 45 151
a 45 377
a 45 219
a 45 220
a 45 221
a 45 104
a 45 223
a 45 225
a 45 12
a 45 229
a 45 230
a 45 140
a 45 141
a 45 142
a 45 155
a 45 107
a 45 234
a 45 134
a 45 17
a 45 18
a 45 19
a 45 96
a 45 352
a 45 20
a 45 236
a 45 237
a 45 239
a 45 97
a 45 108
a 45 98
a 45 320
a 45 143
a 45 240
a 45 21
a 45 241
a 45 242
a 45 22
a 45 127
a 45 128
a 45 109
a 45 244
a 45 245
a 45 248
a 45 249
a 45 250
a 45 252
a 45 255
a 45 256
a 45 26
a 45 257
a 45 265
a 45 267
a 45 268
a 45 27
a 45 269
a 45 271
a 45 272
a 45 273
a 45 30
a 45 275
a 45 277
a 45 279
a 45 34
a 45 284
a 45 285
a 45 287
a 45 294
a 45 297
a 45 299
a 45 38
a 45 300
a 45 172
a 45 301
a 45 306
a 45 307
a 45 144
a 45 394
a 45 112
a 45 430
a 45 40
a 45 41
a 45 113
a 45 42
a 45 43
a 45 44
a 45 211
a 45 10
a 45 102
a 45 153
a 45 105
a 45 232
a 45 106
a 45 158
a 45 133
a 45 16
a 45 159
a 45 253
a 45 168
a 45 281
a 45 282
a 45 32
a 45 288
a 45 289
a 45 290
a 45 111
a 45 293
a 45 179
a 45 136
a 45 46
a 45 114
a 45 47
a 45 48
a 45 49
a 45 50
a 45 51
a 45 52
a 45 53
a 45 54
a 45 55
a 45 181
a 45 56
a 45 57
a 45 58
a 45 59
a 45 60
a 45 99
a 45 61
a 45 62
a 45 184
a 45 63
a 45 115
a 45 434
a 45 435
a 45 311
a 45 182
a 45 312
a 45 116
a 45 183
a 45 313
a 45 436
a 46 2
a 46 5
a 46 3
a 46 4
a 46 117
a 46 1
a 46 100
a 46 131
a 46 118
a 46 119
a 46 145
a 46 120
a 46 146
a 46 132
a 46 121
a 46 147
a 46 137
a 46 6
a 46 314
a 46 315
a 46 316
a 46 318
a 46 317
a 46 7
a 46 8
a 46 186
a 46 187
a 46 188
a 46 189
a 46 332
a 46 190
a 46 191
a 46 193
a 46 194
a 46 195
a 46 196
a 46 333
a 46 197
a 46 198
a 46 199
a 46 200
a 46 334
a 46 201
a 46 202
a 46 335
a 46 336
a 46 203
a 46 204
a 46 205
a 46 206
a 46 337
a 46 338
a 46 437
a 46 207
a 46 208
a 46 209
a 46 339
a 46 340
a 46 148
a 46 341
a 46 9
a 46 395
a 46 342
a 46 438
a 46 210
a 46 211
a 46 212
a 46 213
a 46 343
a 46 214
a 46 215
a 46 344
a 46 216
a 46 345
a 46 217
a 46 346
a 46 439
a 46 149
a 46 347
a 46 348
a 46 64
a 46 65
a 46 66
a 46 382
a 46 122
a 46 123
a 46 67
a 46 124
a 46 68
a 46 125
a 46 69
a 46 70
a 46 71
a 46 72
a 46 383
a 46 73
a 46 74
a 46 75
a 46 76
a 46 77
a 46 78
a 46 79
a 46 80
a 46 81
a 46 82
a 46 83
a 46 84
a 46 85
a 46 387
a 46 86
a 46 87
a 46 138
a 46 10
a 46 126
a 46 88
a 46 89
a 46 90
a 46 91
a 46 101
a 46 92
a 46 93
a 46 440
a 46 94
a 46 95
a 46 102
a 46 150
a 46 388
a 46 389
a 46 151
a 46 397
a 46 218
a 46 390
a 46 377
a 46 441
a 46 478
a 46 349
a 46 477
a 46 378
a 46 442
a 46 11
a 46 139
a 46 103
a 46 443
a 46 444
a 46 482
a 46 219
a 46 220
a 46 386
a 46 350
a 46 152
a 46 153
a 46 445
a 46 446
a 46 483
a 46 391
a 46 221
a 46 104
a 46 222
a 46 379
a 46 223
a 46 224
a 46 225
a 46 226
a 46 227
a 46 380
a 46 228
a 46 381
a 46 12
a 46 13
a 46 229
a 46 447
a 46 448
a 46 230
a 46 398
a 46 231
a 46 449
a 46 399
a 46 400
a 46 401
a 46 402
a 46 450
a 46 451
a 46 140
a 46 141
a 46 142
a 46 105
a 46 232
a 46 233
a 46 154
a 46 155
a 46 106
a 46 156
a 46 157
a 46 158
a 46 107
a 46 234
a 46 14
a 46 15
a 46 403
a 46 133
a 46 134
a 46 484
a 46 16
a 46 159
a 46 404
a 46 160
a 46 405
a 46 452
a 46 453
a 46 454
a 46 17
a 46 18
a 46 19
a 46 319
a 46 96
a 46 235
a 46 352
a 46 455
a 46 20
a 46 236
a 46 237
a 46 238
a 46 239
a 46 97
a 46 108
a 46 98
a 46 320
a 46 143
a 46 240
a 46 21
a 46 241
a 46 242
a 46 22
a 46 353
a 46 485
a 46 127
a 46 128
a 46 23
a 46 392
a 46 456
a 46 243
a 46 457
a 46 458
a 46 161
a 46 459
a 46 162
a 46 163
a 46 164
a 46 109
a 46 244
a 46 245
a 46 354
a 46 246
a 46 355
a 46 356
a 46 357
a 46 358
a 46 247
a 46 165
a 46 248
a 46 249
a 46 250
a 46 166
a 46 359
a 46 321
a 46 251
a 46 252
a 46 253
a 46 24
a 46 254
a 46 360
a 46 322
a 46 255
a 46 361
a 46 25
a 46 479
a 46 256
a 46 26
a 46 460
a 46 362
a 46 257
a 46 258
a 46 259
a 46 260
a 46 261
a 46 262
a 46 263
a 46 264
a 46 406
a 46 265
a 46 266
a 46 323
a 46 363
a 46 461
a 46 129
a 46 324
a 46 364
a 46 365
a 46 407
a 46 267
a 46 268
a 46 27
a 46 269
a 46 408
a 46 462
a 46 270
a 46 271
a 46 272
a 46 130
a 46 110
a 46 463
a 46 28
a 46 29
a 46 273
a 46 274
a 46 366
a 46 30
a 46 464
a 46 275
a 46 367
a 46 167
a 46 276
a 46 168
a 46 31
a 46 169
a 46 277
a 46 325
a 46 409
a 46 410
a 46 326
a 46 327
a 46 328
a 46 278
a 46 368
a 46 279
a 46 329
a 46 369
a 46 411
a 46 384
a 46 412
a 46 413
a 46 414
a 46 370
a 46 280
a 46 281
a 46 282
a 46 330
a 46 371
a 46 283
a 46 415
a 46 32
a 46 33
a 46 34
a 46 284
a 46 416
a 46 417
a 46 418
a 46 170
a 46 393
a 46 465
a 46 285
a 46 466
a 46 372
a 46 286
a 46 287
a 46 288
a 46 289
a 46 290
a 46 331
a 46 467
a 46 419
a 46 373
a 46 420
a 46 421
a 46 422
a 46 468
a 46 469
a 46 423
a 46 35
a 46 291
a 46 292
a 46 111
a 46 424
a 46 293
a 46 294
a 46 295
a 46 296
a 46 297
a 46 36
a 46 470
a 46 425
a 46 37
a 46 171
a 46 298
a 46 426
a 46 299
a 46 38
a 46 300
a 46 172
a 46 301
a 46 302
a 46 303
a 46 304
a 46 471
a 46 472
a 46 305
a 46 173
a 46 306
a 46 307
a 46 427
a 46 144
a 46 394
a 46 374
a 46 174
a 46 428
a 46 429
a 46 112
a 46 175
a 46 375
a 46 176
a 46 430
a 46 431
a 46 308
a 46 473
a 46 135
a 46 177
a 46 178
a 46 179
a 46 136
a 46 474
a 46 475
a 46 432
a 46 39
a 46 376
a 46 433
a 46 309
a 46 40
a 46 41
a 46 113
a 46 42
a 46 43
a 46 44
a 46 45
a 46 180
a 46 114
a 46 47
a 46 48
a 46 49
a 46 115
a 46 50
a 46 51
a 46 52
a 46 53
a 46 54
a 46 55
a 46 181
a 46 56
a 46 57
a 46 58
a 46 59
a 46 60
a 46 311
a 46 99
a 46 183
a 46 61
a 46 62
a 46 184
a 46 63
a 46 486
a 46 434
a 46 435
a 46 182
a 46 312
a 46 116
a 46 385
a 46 313
a 46 476
a 46 436
a 114 2
a 114 5
a 114 3
a 114 4
a 114 147
a 114 137
a 114 6
a 114 314
a 114 315
a 114 316
a 114 318
a 114 317
a 114 7
a 114 8
a 114 186
a 114 187
a 114 188
a 114 189
a 114 332
a 114 190
a 114 191
a 114 193
a 114 194
a 114 195
a 114 196
a 114 333
a 114 197
a 114 198
a 114 199
a 114 200
a 114 201
a 114 202
a 114 336
a 114 203
a 114 204
a 114 205
a 114 206
a 114 337
a 114 338
a 114 437
a 114 207
a 114 208
a 114 209
a 114 339
a 114 340
a 114 148
a 114 341
a 114 9
a 114 395
a 114 342
a 114 438
a 114 210
a 114 212
a 114 213
a 114 343
a 114 214
a 114 215
a 114 344
a 114 216
a 114 345
a 114 217
a 114 346
a 114 439
a 114 149
a 114 347
a 114 348
a 114 64
a 114 65
a 114 66
a 114 382
a 114 122
a 114 123
a 114 67
a 114 124
a 114 68
a 114 125
a 114 69
a 114 70
a 114 71
a 114 72
a 114 383
a 114 73
a 114 74
a 114 75
a 114 76
a 114 77
a 114 78
a 114 79
a 114 80
a 114 81
a 114 82
a 114 83
a 114 84
a 114 85
a 114 387
a 114 86
a 114 87
a 114 138
a 114 10
a 114 126
a 114 88
a 114 89
a 114 90
a 114 91
a 114 101
a 114 92
a 114 93
a 114 440
a 114 94
a 114 95
a 114 102
a 114 150
a 114 388
a 114 389
a 114 151
a 114 397
a 114 218
a 114 390
a 114 377
a 114 441
a 114 478
a 114 349
a 114 477
a 114 378
a 114 442
a 114 11
a 114 139
a 114 103
a 114 443
a 114 444
a 114 482
a 114 219
a 114 220
a 114 386
a 114 350
a 114 152
a 114 153
a 114 445
a 114 446
a 114 483
a 114 391
a 114 221
a 114 104
a 114 222
a 114 379
a 114 223
a 114 224
a 114 225
a 114 226
a 114 227
a 114 380
a 114 228
a 114 381
a 114 12
a 114 13
a 114 229
a 114 447
a 114 448
a 114 230
a 114 398
a 114 231
a 114 449
a 114 399
a 114 400
a 114 401
a 114 402
a 114 450
a 114 451
a 114 140
a 114 141
a 114 142
a 114 105
a 114 232
a 114 233
a 114 154
a 114 155
a 114 106
a 114 156
a 114 157
a 114 158
a 114 107
a 114 234
a 114 14
a 114 15
a 114 403
a 114 133
a 114 134
a 114 484
a 114 16
a 114 159
a 114 404
a 114 160
a 114 405
a 114 452
a 114 453
a 114 454
a 114 17
a 114 18
a 114 351
a 114 19
a 114 319
a 114 96
a 114 235
a 114 352
a 114 455
a 114 20
a 114 236
a 114 237
a 114 238
a 114 239
a 114 97
a 114 108
a 114 98
a 114 320
a 114 143
a 114 240
a 114 21
a 114 241
a 114 242
a 114 22
a 114 353
a 114 485
a 114 127
a 114 128
a 114 23
a 114 392
a 114 456
a 114 243
a 114 457
a 114 458
a 114 161
a 114 459
a 114 162
a 114 163
a 114 164
a 114 109
a 114 244
a 114 245
a 114 354
a 114 246
a 114 355
a 114 356
a 114 357
a 114 358
a 114 247
a 114 165
a 114 248
a 114 249
a 114 250
a 114 166
a 114 359
a 114 321
a 114 251
a 114 252
a 114 253
a 114 24
a 114 254
a 114 360
a 114 322
a 114 255
a 114 361
a 114 25
a 114 479
a 114 480
a 114 256
a 114 26
a 114 460
a 114 362
a 114 257
a 114 258
a 114 259
a 114 260
a 114 261
a 114 262
a 114 263
a 114 264
a 114 406
a 114 265
a 114 266
a 114 323
a 114 363
a 114 461
a 114 129
a 114 324
a 114 364
a 114 365
a 114 407
a 114 267
a 114 268
a 114 27
a 114 269
a 114 408
a 114 462
a 114 270
a 114 271
a 114 272
a 114 130
a 114 110
a 114 463
a 114 28
a 114 29
a 114 273
a 114 274
a 114 366
a 114 30
a 114 464
a 114 275
a 114 367
a 114 167
a 114 276
a 114 168
a 114 31
a 114 169
a 114 277
a 114 325
a 114 409
a 114 410
a 114 326
a 114 327
a 114 328
a 114 278
a 114 368
a 114 279
a 114 329
a 114 369
a 114 411
a 114 384
a 114 412
a 114 413
a 114 414
a 114 370
a 114 280
a 114 281
a 114 282
a 114 330
a 114 371
a 114 283
a 114 415
a 114 32
a 114 33
a 114 34
a 114 284
a 114 416
a 114 417
a 114 418
a 114 170
a 114 393
a 114 465
a 114 285
a 114 466
a 114 372
a 114 286
a 114 287
a 114 288
a 114 289
a 114 290
a 114 331
a 114 467
a 114 419
a 114 373
a 114 420
a 114 421
a 114 422
a 114 468
a 114 469
a 114 423
a 114 35
a 114 291
a 114 292
a 114 111
a 114 424
a 114 293
a 114 294
a 114 295
a 114 296
a 114 297
a 114 36
a 114 470
a 114 425
a 114 37
a 114 171
a 114 298
a 114 426
a 114 299
a 114 38
a 114 300
a 114 172
a 114 301
a 114 302
a 114 303
a 114 304
a 114 471
a 114 472
a 114 305
a 114 173
a 114 306
a 114 307
a 114 427
a 114 144
a 114 394
a 114 374
a 114 174
a 114 428
a 114 429
a 114 112
a 114 175
a 114 375
a 114 176
a 114 430
a 114 431
a 114 308
a 114 473
a 114 135
a 114 177
a 114 178
a 114 179
a 114 136
a 114 474
a 114 475
a 114 432
a 114 39
a 114 376
a 114 433
a 114 309
a 114 40
a 114 41
a 114 113
a 114 42
a 114 43
a 114 44
a 114 45
a 114 180
a 114 46
a 114 119
a 114 47
a 114 48
a 114 49
a 114 115
a 114 50
a 114 51
a 114 52
a 114 53
a 114 54
a 114 55
a 114 181
a 114 56
a 114 57
a 114 58
a 114 59
a 114 60
a 114 311
a 114 99
a 114 312
a 114 183
a 114 61
a 114 62
a 114 184
a 114 63
a 114 185
a 114 434
a 114 435
a 114 182
a 114 116
a 114 396
a 114 385
a 114 313
a 114 476
a 114 436
a 48 2
a 48 5
a 48 3
a 48 4
a 48 117
a 48 1
a 48 100
a 48 131
a 48 118
a 48 119
a 48 120
a 48 121
a 48 147
a 48 137
a 48 6
a 48 314
a 48 315
a 48 316
a 48 318
a 48 317
a 48 7
a 48 8
a 48 186
a 48 187
a 48 188
a 48 189
a 48 332
a 48 190
a 48 191
a 48 193
a 48 194
a 48 195
a 48 196
a 48 333
a 48 197
a 48 198
a 48 199
a 48 200
a 48 201
a 48 202
a 48 336
a 48 203
a 48 204
a 48 205
a 48 206
a 48 337
a 48 338
a 48 437
a 48 207
a 48 208
a 48 209
a 48 339
a 48 340
a 48 148
a 48 341
a 48 9
a 48 395
a 48 342
a 48 438
a 48 210
a 48 212
a 48 213
a 48 343
a 48 214
a 48 215
a 48 344
a 48 216
a 48 345
a 48 217
a 48 346
a 48 439
a 48 149
a 48 347
a 48 348
a 48 64
a 48 65
a 48 66
a 48 382
a 48 122
a 48 123
a 48 67
a 48 124
a 48 68
a 48 125
a 48 69
a 48 70
a 48 71
a 48 72
a 48 383
a 48 73
a 48 74
a 48 75
a 48 76
a 48 77
a 48 78
a 48 79
a 48 80
a 48 81
a 48 82
a 48 83
a 48 84
a 48 85
a 48 387
a 48 86
a 48 87
a 48 138
a 48 10
a 48 126
a 48 88
a 48 89
a 48 90
a 48 91
a 48 101
a 48 92
a 48 93
a 48 440
a 48 94
a 48 95
a 48 102
a 48 150
a 48 389
a 48 151
a 48 397
a 48 218
a 48 390
a 48 377
a 48 441
a 48 349
a 48 477
a 48 378
a 48 442
a 48 11
a 48 139
a 48 103
a 48 443
a 48 444
a 48 482
a 48 219
a 48 220
a 48 386
a 48 350
a 48 391
a 48 221
a 48 104
a 48 222
a 48 379
a 48 223
a 48 224
a 48 225
a 48 227
a 48 380
a 48 381
a 48 12
a 48 13
a 48 229
a 48 448
a 48 230
a 48 398
a 48 231
a 48 449
a 48 399
a 48 401
a 48 402
a 48 450
a 48 451
a 48 140
a 48 141
a 48 142
a 48 105
a 48 232
a 48 233
a 48 154
a 48 155
a 48 106
a 48 156
a 48 158
a 48 107
a 48 234
a 48 15
a 48 403
a 48 134
a 48 16
a 48 159
a 48 404
a 48 160
a 48 405
a 48 17
a 48 18
a 48 19
a 48 319
a 48 96
a 48 235
a 48 352
a 48 455
a 48 20
a 48 236
a 48 237
a 48 238
a 48 239
a 48 97
a 48 108
a 48 98
a 48 320
a 48 143
a 48 240
a 48 21
a 48 241
a 48 242
a 48 22
a 48 353
a 48 127
a 48 128
a 48 23
a 48 392
a 48 456
a 48 243
a 48 161
a 48 164
a 48 109
a 48 244
a 48 245
a 48 354
a 48 246
a 48 356
a 48 357
a 48 247
a 48 165
a 48 248
a 48 249
a 48 250
a 48 166
a 48 359
a 48 321
a 48 251
a 48 252
a 48 253
a 48 24
a 48 254
a 48 360
a 48 322
a 48 255
a 48 361
a 48 25
a 48 479
a 48 480
a 48 256
a 48 26
a 48 460
a 48 362
a 48 257
a 48 258
a 48 259
a 48 260
a 48 261
a 48 262
a 48 263
a 48 264
a 48 406
a 48 265
a 48 266
a 48 323
a 48 363
a 48 461
a 48 129
a 48 324
a 48 364
a 48 365
a 48 407
a 48 267
a 48 268
a 48 27
a 48 269
a 48 408
a 48 462
a 48 270
a 48 271
a 48 272
a 48 130
a 48 110
a 48 463
a 48 28
a 48 29
a 48 273
a 48 274
a 48 366
a 48 30
a 48 464
a 48 275
a 48 367
a 48 167
a 48 276
a 48 168
a 48 31
a 48 169
a 48 277
a 48 325
a 48 409
a 48 410
a 48 326
a 48 327
a 48 328
a 48 278
a 48 368
a 48 279
a 48 329
a 48 369
a 48 411
a 48 384
a 48 412
a 48 413
a 48 414
a 48 370
a 48 280
a 48 281
a 48 282
a 48 330
a 48 371
a 48 283
a 48 32
a 48 33
a 48 34
a 48 284
a 48 416
a 48 417
a 48 170
a 48 393
a 48 285
a 48 466
a 48 372
a 48 286
a 48 287
a 48 288
a 48 289
a 48 290
a 48 331
a 48 467
a 48 419
a 48 373
a 48 420
a 48 421
a 48 422
a 48 468
a 48 469
a 48 423
a 48 35
a 48 291
a 48 292
a 48 111
a 48 424
a 48 293
a 48 294
a 48 295
a 48 296
a 48 297
a 48 36
a 48 470
a 48 425
a 48 37
a 48 171
a 48 298
a 48 426
a 48 299
a 48 38
a 48 300
a 48 172
a 48 301
a 48 302
a 48 303
a 48 304
a 48 471
a 48 472
a 48 305
a 48 173
a 48 306
a 48 307
a 48 427
a 48 144
a 48 394
a 48 174
a 48 428
a 48 429
a 48 112
a 48 175
a 48 375
a 48 176
a 48 430
a 48 431
a 48 308
a 48 135
a 48 177
a 48 136
a 48 432
a 48 39
a 48 376
a 48 433
a 48 309
a 48 40
a 48 41
a 48 113
a 48 42
a 48 43
a 48 44
a 48 45
a 48 180
a 48 46
a 48 114
a 48 47
a 48 152
a 48 157
a 48 14
a 48 133
a 48 162
a 48 178
a 48 179
a 48 49
a 48 115
a 48 50
a 48 51
a 48 52
a 48 53
a 48 54
a 48 55
a 48 181
a 48 56
a 48 57
a 48 58
a 48 59
a 48 60
a 48 99
a 48 182
a 48 312
a 48 116
a 48 183
a 48 61
a 48 62
a 48 184
a 48 63
a 48 185
a 48 434
a 48 435
a 48 311
a 48 396
a 48 385
a 48 313
a 48 476
a 48 436
a 49 2
a 49 5
a 49 3
a 49 4
a 49 117
a 49 1
a 49 100
a 49 131
a 49 118
a 49 119
a 49 145
a 49 120
a 49 146
a 49 132
a 49 121
a 49 147
a 49 137
a 49 6
a 49 314
a 49 315
a 49 316
a 49 318
a 49 317
a 49 7
a 49 8
a 49 186
a 49 187
a 49 188
a 49 189
a 49 332
a 49 190
a 49 191
a 49 192
a 49 193
a 49 194
a 49 195
a 49 196
a 49 333
a 49 197
a 49 198
a 49 199
a 49 200
a 49 334
a 49 201
a 49 202
a 49 335
a 49 336
a 49 203
a 49 204
a 49 205
a 49 206
a 49 337
a 49 338
a 49 437
a 49 207
a 49 208
a 49 209
a 49 339
a 49 340
a 49 148
a 49 341
a 49 9
a 49 395
a 49 342
a 49 438
a 49 210
a 49 211
a 49 212
a 49 213
a 49 343
a 49 214
a 49 215
a 49 344
a 49 216
a 49 345
a 49 217
a 49 346
a 49 439
a 49 149
a 49 347
a 49 348
a 49 64
a 49 65
a 49 66
a 49 382
a 49 122
a 49 123
a 49 67
a 49 124
a 49 68
a 49 125
a 49 69
a 49 70
a 49 71
a 49 72
a 49 383
a 49 73
a 49 74
a 49 75
a 49 76
a 49 77
a 49 78
a 49 79
a 49 80
a 49 81
a 49 82
a 49 83
a 49 84
a 49 85
a 49 387
a 49 86
a 49 87
a 49 138
a 49 10
a 49 126
a 49 88
a 49 89
a 49 90
a 49 91
a 49 101
a 49 92
a 49 93
a 49 440
a 49 94
a 49 95
a 49 102
a 49 150
a 49 388
a 49 389
a 49 151
a 49 397
a 49 218
a 49 390
a 49 377
a 49 441
a 49 478
a 49 349
a 49 477
a 49 378
a 49 442
a 49 11
a 49 139
a 49 103
a 49 443
a 49 444
a 49 482
a 49 481
a 49 219
a 49 220
a 49 386
a 49 350
a 49 152
a 49 153
a 49 445
a 49 446
a 49 483
a 49 391
a 49 221
a 49 104
a 49 222
a 49 379
a 49 223
a 49 224
a 49 225
a 49 226
a 49 227
a 49 380
a 49 228
a 49 381
a 49 12
a 49 13
a 49 229
a 49 447
a 49 448
a 49 230
a 49 398
a 49 231
a 49 449
a 49 399
a 49 400
a 49 401
a 49 402
a 49 450
a 49 451
a 49 140
a 49 141
a 49 142
a 49 105
a 49 232
a 49 233
a 49 154
a 49 155
a 49 106
a 49 156
a 49 157
a 49 158
a 49 107
a 49 234
a 49 14
a 49 15
a 49 403
a 49 133
a 49 134
a 49 484
a 49 16
a 49 159
a 49 404
a 49 160
a 49 405
a 49 452
a 49 453
a 49 454
a 49 17
a 49 18
a 49 351
a 49 19
a 49 319
a 49 96
a 49 235
a 49 352
a 49 455
a 49 20
a 49 236
a 49 237
a 49 238
a 49 239
a 49 97
a 49 108
a 49 98
a 49 320
a 49 143
a 49 240
a 49 21
a 49 241
a 49 242
a 49 22
a 49 353
a 49 485
a 49 127
a 49 128
a 49 23
a 49 392
a 49 456
a 49 243
a 49 457
a 49 458
a 49 161
a 49 459
a 49 162
a 49 163
a 49 164
a 49 109
a 49 244
a 49 245
a 49 354
a 49 246
a 49 355
a 49 356
a 49 357
a 49 358
a 49 247
a 49 165
a 49 248
a 49 249
a 49 250
a 49 166
a 49 359
a 49 321
a 49 251
a 49 252
a 49 253
a 49 24
a 49 254
a 49 360
a 49 322
a 49 255
a 49 361
a 49 25
a 49 479
a 49 480
a 49 256
a 49 26
a 49 460
a 49 362
a 49 257
a 49 258
a 49 259
a 49 260
a 49 261
a 49 262
a 49 263
a 49 264
a 49 406
a 49 265
a 49 266
a 49 323
a 49 363
a 49 461
a 49 129
a 49 324
a 49 364
a 49 365
a 49 407
a 49 267
a 49 268
a 49 27
a 49 269
a 49 408
a 49 462
a 49 270
a 49 271
a 49 272
a 49 130
a 49 110
a 49 463
a 49 28
a 49 29
a 49 273
a 49 274
a 49 366
a 49 30
a 49 464
a 49 275
a 49 367
a 49 167
a 49 276
a 49 168
a 49 31
a 49 169
a 49 277
a 49 325
a 49 409
a 49 410
a 49 326
a 49 327
a 49 328
a 49 278
a 49 368
a 49 279
a 49 329
a 49 369
a 49 411
a 49 384
a 49 412
a 49 413
a 49 414
a 49 370
a 49 280
a 49 281
a 49 282
a 49 330
a 49 371
a 49 283
a 49 415
a 49 32
a 49 33
a 49 34
a 49 284
a 49 416
a 49 417
a 49 418
a 49 170
a 49 393
a 49 465
a 49 285
a 49 466
a 49 372
a 49 286
a 49 287
a 49 288
a 49 289
a 49 290
a 49 331
a 49 467
a 49 419
a 49 373
a 49 420
a 49 421
a 49 422
a 49 468
a 49 469
a 49 423
a 49 35
a 49 291
a 49 292
a 49 111
a 49 424
a 49 293
a 49 294
a 49 295
a 49 296
a 49 297
a 49 36
a 49 470
a 49 425
a 49 37
a 49 171
a 49 298
a 49 426
a 49 299
a 49 38
a 49 300
a 49 172
a 49 301
a 49 302
a 49 303
a 49 304
a 49 471
a 49 472
a 49 305
a 49 173
a 49 306
a 49 307
a 49 427
a 49 144
a 49 394
a 49 374
a 49 174
a 49 428
a 49 429
a 49 112
a 49 175
a 49 375
a 49 176
a 49 430
a 49 431
a 49 308
a 49 473
a 49 135
a 49 177
a 49 178
a 49 179
a 49 136
a 49 474
a 49 475
a 49 432
a 49 39
a 49 376
a 49 433
a 49 309
a 49 40
a 49 41
a 49 113
a 49 42
a 49 43
a 49 44
a 49 45
a 49 180
a 49 46
a 49 114
a 49 47
a 49 48
a 49 115
a 49 50
a 49 51
a 49 52
a 49 53
a 49 54
a 49 55
a 49 181
a 49 56
a 49 57
a 49 58
a 49 59
a 49 60
a 49 99
a 49 183
a 49 61
a 49 62
a 49 184
a 49 63
a 49 185
a 49 434
a 49 310
a 49 435
a 49 311
a 49 182
a 49 312
a 49 116
a 49 396
a 49 385
a 49 313
a 49 476
a 49 436
a 115 2
a 115 5
a 115 3
a 115 4
a 115 100
a 115 119
a 115 145
a 115 120
a 115 147
a 115 137
a 115 6
a 115 314
a 115 315
a 115 316
a 115 318
a 115 317
a 115 7
a 115 8
a 115 186
a 115 187
a 115 188
a 115 189
a 115 332
a 115 190
a 115 191
a 115 192
a 115 193
a 115 194
a 115 195
a 115 196
a 115 333
a 115 197
a 115 198
a 115 199
a 115 200
a 115 334
a 115 201
a 115 202
a 115 335
a 115 336
a 115 203
a 115 204
a 115 205
a 115 206
a 115 337
a 115 338
a 115 437
a 115 207
a 115 208
a 115 209
a 115 339
a 115 340
a 115 148
a 115 341
a 115 9
a 115 395
a 115 342
a 115 438
a 115 210
a 115 211
a 115 212
a 115 213
a 115 343
a 115 214
a 115 215
a 115 344
a 115 216
a 115 345
a 115 217
a 115 346
a 115 149
a 115 347
a 115 348
a 115 64
a 115 65
a 115 66
a 115 382
a 115 122
a 115 123
a 115 67
a 115 124
a 115 68
a 115 125
a 115 69
a 115 70
a 115 71
a 115 72
a 115 383
a 115 73
a 115 74
a 115 75
a 115 76
a 115 77
a 115 78
a 115 80
a 115 81
a 115 82
a 115 83
a 115 84
a 115 85
a 115 86
a 115 138
a 115 10
a 115 126
a 115 88
a 115 89
a 115 90
a 115 101
a 115 92
a 115 93
a 115 440
a 115 94
a 115 95
a 115 102
a 115 150
a 115 389
a 115 151
a 115 218
a 115 377
a 115 378
a 115 443
a 115 444
a 115 219
a 115 220
a 115 386
a 115 350
a 115 445
a 115 446
a 115 391
a 115 221
a 115 104
a 115 222
a 115 223
a 115 224
a 115 225
a 115 226
a 115 227
a 115 380
a 115 228
a 115 12
a 115 13
a 115 229
a 115 448
a 115 230
a 115 398
a 115 231
a 115 449
a 115 399
a 115 400
a 115 401
a 115 402
a 115 450
a 115 451
a 115 140
a 115 141
a 115 142
a 115 105
a 115 232
a 115 154
a 115 155
a 115 107
a 115 234
a 115 14
a 115 15
a 115 403
a 115 133
a 115 134
a 115 16
a 115 159
a 115 404
a 115 160
a 115 405
a 115 17
a 115 18
a 115 19
a 115 96
a 115 235
a 115 20
a 115 236
a 115 237
a 115 239
a 115 97
a 115 108
a 115 98
a 115 320
a 115 143
a 115 240
a 115 21
a 115 241
a 115 242
a 115 22
a 115 353
a 115 127
a 115 128
a 115 23
a 115 392
a 115 243
a 115 161
a 115 459
a 115 162
a 115 164
a 115 109
a 115 244
a 115 245
a 115 246
a 115 247
a 115 248
a 115 249
a 115 250
a 115 166
a 115 359
a 115 321
a 115 251
a 115 252
a 115 253
a 115 24
a 115 254
a 115 255
a 115 25
a 115 256
a 115 26
a 115 460
a 115 257
a 115 258
a 115 259
a 115 260
a 115 261
a 115 262
a 115 263
a 115 264
a 115 406
a 115 265
a 115 266
a 115 323
a 115 363
a 115 129
a 115 324
a 115 364
a 115 365
a 115 407
a 115 267
a 115 268
a 115 27
a 115 269
a 115 408
a 115 462
a 115 270
a 115 271
a 115 272
a 115 110
a 115 463
a 115 28
a 115 273
a 115 274
a 115 366
a 115 30
a 115 275
a 115 167
a 115 276
a 115 168
a 115 31
a 115 169
a 115 277
a 115 325
a 115 409
a 115 410
a 115 326
a 115 327
a 115 328
a 115 278
a 115 368
a 115 279
a 115 329
a 115 369
a 115 411
a 115 384
a 115 412
a 115 413
a 115 414
a 115 370
a 115 280
a 115 281
a 115 282
a 115 330
a 115 371
a 115 283
a 115 415
a 115 32
a 115 33
a 115 34
a 115 284
a 115 416
a 115 417
a 115 418
a 115 170
a 115 393
a 115 465
a 115 285
a 115 466
a 115 372
a 115 286
a 115 287
a 115 288
a 115 289
a 115 290
a 115 331
a 115 419
a 115 373
a 115 420
a 115 421
a 115 422
a 115 35
a 115 291
a 115 292
a 115 111
a 115 293
a 115 294
a 115 295
a 115 296
a 115 297
a 115 36
a 115 37
a 115 171
a 115 298
a 115 426
a 115 299
a 115 38
a 115 300
a 115 172
a 115 301
a 115 302
a 115 303
a 115 304
a 115 471
a 115 472
a 115 305
a 115 306
a 115 307
a 115 427
a 115 144
a 115 394
a 115 374
a 115 174
a 115 428
a 115 429
a 115 112
a 115 175
a 115 176
a 115 430
a 115 431
a 115 308
a 115 473
a 115 135
a 115 177
a 115 136
a 115 474
a 115 432
a 115 39
a 115 433
a 115 309
a 115 40
a 115 41
a 115 113
a 115 42
a 115 43
a 115 44
a 115 180
a 115 46
a 115 114
a 115 47
a 115 48
a 115 49
a 115 131
a 115 441
a 115 11
a 115 139
a 115 152
a 115 153
a 115 106
a 115 156
a 115 157
a 115 158
a 115 163
a 115 357
a 115 165
a 115 360
a 115 464
a 115 469
a 115 173
a 115 178
a 115 179
a 115 45
a 115 50
a 115 51
a 115 52
a 115 53
a 115 54
a 115 55
a 115 181
a 115 56
a 115 57
a 115 58
a 115 59
a 115 60
a 115 311
a 115 99
a 115 182
a 115 183
a 115 61
a 115 62
a 115 436
a 115 184
a 115 63
a 115 185
a 115 434
a 115 435
a 115 312
a 115 116
a 115 396
a 115 385
a 50 2
a 50 5
a 50 3
a 50 4
a 50 117
a 50 1
a 50 100
a 50 131
a 50 118
a 50 119
a 50 145
a 50 120
a 50 146
a 50 132
a 50 121
a 50 147
a 50 137
a 50 6
a 50 314
a 50 315
a 50 316
a 50 318
a 50 317
a 50 7
a 50 8
a 50 186
a 50 187
a 50 188
a 50 189
a 50 332
a 50 190
a 50 191
a 50 193
a 50 194
a 50 195
a 50 196
a 50 333
a 50 197
a 50 198
a 50 199
a 50 200
a 50 334
a 50 201
a 50 202
a 50 335
a 50 336
a 50 203
a 50 204
a 50 205
a 50 206
a 50 337
a 50 338
a 50 437
a 50 207
a 50 208
a 50 209
a 50 339
a 50 340
a 50 148
a 50 341
a 50 9
a 50 395
a 50 342
a 50 438
a 50 210
a 50 211
a 50 212
a 50 213
a 50 343
a 50 214
a 50 215
a 50 344
a 50 216
a 50 345
a 50 217
a 50 346
a 50 439
a 50 149
a 50 347
a 50 348
a 50 64
a 50 65
a 50 66
a 50 382
a 50 122
a 50 123
a 50 67
a 50 124
a 50 68
a 50 125
a 50 69
a 50 70
a 50 71
a 50 72
a 50 383
a 50 73
a 50 74
a 50 75
a 50 76
a 50 77
a 50 78
a 50 79
a 50 80
a 50 81
a 50 82
a 50 83
a 50 84
a 50 85
a 50 387
a 50 86
a 50 87
a 50 138
a 50 10
a 50 126
a 50 88
a 50 89
a 50 90
a 50 91
a 50 101
a 50 92
a 50 93
a 50 440
a 50 94
a 50 95
a 50 102
a 50 150
a 50 388
a 50 389
a 50 151
a 50 397
a 50 218
a 50 390
a 50 377
a 50 441
a 50 478
a 50 349
a 50 477
a 50 378
a 50 442
a 50 11
a 50 139
a 50 103
a 50 443
a 50 444
a 50 482
a 50 219
a 50 220
a 50 386
a 50 350
a 50 152
a 50 153
a 50 445
a 50 446
a 50 483
a 50 391
a 50 221
a 50 104
a 50 222
a 50 379
a 50 223
a 50 224
a 50 225
a 50 226
a 50 227
a 50 380
a 50 228
a 50 381
a 50 12
a 50 13
a 50 229
a 50 447
a 50 448
a 50 230
a 50 398
a 50 231
a 50 449
a 50 399
a 50 400
a 50 401
a 50 402
a 50 450
a 50 451
a 50 140
a 50 141
a 50 142
a 50 105
a 50 232
a 50 233
a 50 154
a 50 155
a 50 106
a 50 156
a 50 157
a 50 158
a 50 107
a 50 234
a 50 14
a 50 15
a 50 403
a 50 133
a 50 134
a 50 484
a 50 16
a 50 159
a 50 404
a 50 160
a 50 405
a 50 452
a 50 453
a 50 454
a 50 17
a 50 18
a 50 19
a 50 319
a 50 96
a 50 235
a 50 352
a 50 455
a 50 20
a 50 236
a 50 237
a 50 238
a 50 239
a 50 97
a 50 108
a 50 98
a 50 320
a 50 143
a 50 240
a 50 21
a 50 241
a 50 242
a 50 22
a 50 353
a 50 485
a 50 127
a 50 128
a 50 23
a 50 392
a 50 456
a 50 243
a 50 457
a 50 458
a 50 161
a 50 459
a 50 162
a 50 163
a 50 164
a 50 109
a 50 244
a 50 245
a 50 354
a 50 246
a 50 355
a 50 356
a 50 357
a 50 358
a 50 247
a 50 165
a 50 248
a 50 249
a 50 250
a 50 166
a 50 359
a 50 321
a 50 251
a 50 252
a 50 253
a 50 24
a 50 254
a 50 360
a 50 322
a 50 255
a 50 361
a 50 25
a 50 479
a 50 480
a 50 256
a 50 26
a 50 460
a 50 362
a 50 257
a 50 258
a 50 259
a 50 260
a 50 261
a 50 262
a 50 263
a 50 264
a 50 406
a 50 265
a 50 266
a 50 323
a 50 363
a 50 461
a 50 129
a 50 324
a 50 364
a 50 365
a 50 407
a 50 267
a 50 268
a 50 27
a 50 269
a 50 408
a 50 462
a 50 270
a 50 271
a 50 272
a 50 130
a 50 110
a 50 463
a 50 28
a 50 29
a 50 273
a 50 274
a 50 366
a 50 30
a 50 464
a 50 275
a 50 367
a 50 167
a 50 276
a 50 168
a 50 31
a 50 169
a 50 277
a 50 325
a 50 409
a 50 410
a 50 326
a 50 327
a 50 328
a 50 278
a 50 368
a 50 279
a 50 329
a 50 369
a 50 411
a 50 384
a 50 412
a 50 413
a 50 414
a 50 370
a 50 280
a 50 281
a 50 282
a 50 330
a 50 371
a 50 283
a 50 415
a 50 32
a 50 33
a 50 34
a 50 284
a 50 416
a 50 417
a 50 418
a 50 170
a 50 393
a 50 465
a 50 285
a 50 466
a 50 372
a 50 286
a 50 287
a 50 288
a 50 289
a 50 290
a 50 331
a 50 467
a 50 419
a 50 373
a 50 420
a 50 421
a 50 422
a 50 468
a 50 469
a 50 423
a 50 35
a 50 291
a 50 292
a 50 111
a 50 424
a 50 293
a 50 294
a 50 295
a 50 296
a 50 297
a 50 36
a 50 470
a 50 425
a 50 37
a 50 171
a 50 298
a 50 426
a 50 299
a 50 38
a 50 300
a 50 172
a 50 301
a 50 302
a 50 303
a 50 304
a 50 471
a 50 472
a 50 305
a 50 173
a 50 306
a 50 307
a 50 427
a 50 144
a 50 394
a 50 374
a 50 174
a 50 428
a 50 429
a 50 112
a 50 175
a 50 375
a 50 176
a 50 430
a 50 431
a 50 308
a 50 473
a 50 135
a 50 177
a 50 178
a 50 179
a 50 136
a 50 474
a 50 475
a 50 432
a 50 39
a 50 376
a 50 433
a 50 309
a 50 40
a 50 41
a 50 113
a 50 42
a 50 43
a 50 44
a 50 45
a 50 180
a 50 46
a 50 114
a 50 47
a 50 48
a 50 49
a 50 115
a 50 51
a 50 52
a 50 53
a 50 54
a 50 55
a 50 181
a 50 56
a 50 57
a 50 58
a 50 59
a 50 60
a 50 311
a 50 99
a 50 183
a 50 61
a 50 62
a 50 436
a 50 184
a 50 63
a 50 434
a 50 310
a 50 435
a 50 182
a 50 312
a 50 116
a 50 385
a 50 313
a 50 476
a 51 2
a 51 5
a 51 3
a 51 4
a 51 117
a 51 1
a 51 100
a 51 118
a 51 119
a 51 145
a 51 120
a 51 146
a 51 121
a 51 147
a 51 137
a 51 6
a 51 315
a 51 316
a 51 318
a 51 317
a 51 7
a 51 8
a 51 186
a 51 187
a 51 188
a 51 189
a 51 332
a 51 190
a 51 191
a 51 192
a 51 193
a 51 194
a 51 195
a 51 196
a 51 197
a 51 198
a 51 199
a 51 200
a 51 201
a 51 202
a 51 335
a 51 336
a 51 203
a 51 204
a 51 205
a 51 206
a 51 337
a 51 338
a 51 437
a 51 207
a 51 208
a 51 209
a 51 339
a 51 340
a 51 148
a 51 9
a 51 395
a 51 342
a 51 438
a 51 210
a 51 212
a 51 213
a 51 214
a 51 215
a 51 344
a 51 216
a 51 345
a 51 217
a 51 346
a 51 439
a 51 149
a 51 347
a 51 348
a 51 64
a 51 65
a 51 66
a 51 382
a 51 122
a 51 123
a 51 67
a 51 124
a 51 68
a 51 125
a 51 69
a 51 70
a 51 71
a 51 72
a 51 383
a 51 73
a 51 74
a 51 75
a 51 76
a 51 77
a 51 78
a 51 79
a 51 80
a 51 81
a 51 82
a 51 83
a 51 84
a 51 85
a 51 86
a 51 10
a 51 126
a 51 88
a 51 90
a 51 101
a 51 92
a 51 93
a 51 440
a 51 94
a 51 95
a 51 102
a 51 150
a 51 388
a 51 389
a 51 151
a 51 397
a 51 218
a 51 390
a 51 377
a 51 441
a 51 378
a 51 11
a 51 139
a 51 103
a 51 443
a 51 482
a 51 219
a 51 220
a 51 386
a 51 350
a 51 153
a 51 446
a 51 391
a 51 221
a 51 104
a 51 222
a 51 223
a 51 224
a 51 225
a 51 226
a 51 227
a 51 380
a 51 228
a 51 381
a 51 12
a 51 13
a 51 229
a 51 447
a 51 448
a 51 230
a 51 398
a 51 231
a 51 399
a 51 400
a 51 401
a 51 402
a 51 450
a 51 451
a 51 140
a 51 141
a 51 142
a 51 105
a 51 232
a 51 233
a 51 154
a 51 155
a 51 106
a 51 156
a 51 157
a 51 158
a 51 107
a 51 234
a 51 14
a 51 15
a 51 403
a 51 133
a 51 134
a 51 16
a 51 159
a 51 404
a 51 160
a 51 405
a 51 452
a 51 17
a 51 18
a 51 19
a 51 319
a 51 96
a 51 352
a 51 20
a 51 236
a 51 237
a 51 238
a 51 239
a 51 97
a 51 108
a 51 98
a 51 320
a 51 143
a 51 240
a 51 21
a 51 241
a 51 242
a 51 22
a 51 353
a 51 127
a 51 128
a 51 23
a 51 392
a 51 456
a 51 243
a 51 457
a 51 161
a 51 459
a 51 162
a 51 163
a 51 164
a 51 109
a 51 244
a 51 245
a 51 354
a 51 246
a 51 355
a 51 356
a 51 247
a 51 248
a 51 249
a 51 250
a 51 321
a 51 251
a 51 252
a 51 253
a 51 24
a 51 254
a 51 360
a 51 255
a 51 25
a 51 256
a 51 26
a 51 460
a 51 362
a 51 257
a 51 258
a 51 259
a 51 260
a 51 261
a 51 263
a 51 264
a 51 406
a 51 265
a 51 266
a 51 323
a 51 363
a 51 461
a 51 129
a 51 324
a 51 364
a 51 365
a 51 407
a 51 267
a 51 268
a 51 27
a 51 269
a 51 408
a 51 462
a 51 270
a 51 271
a 51 272
a 51 130
a 51 110
a 51 463
a 51 28
a 51 29
a 51 273
a 51 274
a 51 366
a 51 30
a 51 464
a 51 275
a 51 367
a 51 167
a 51 276
a 51 168
a 51 31
a 51 169
a 51 277
a 51 325
a 51 409
a 51 410
a 51 326
a 51 327
a 51 328
a 51 278
a 51 368
a 51 279
a 51 329
a 51 369
a 51 411
a 51 384
a 51 412
a 51 413
a 51 414
a 51 370
a 51 280
a 51 281
a 51 282
a 51 330
a 51 283
a 51 415
a 51 32
a 51 33
a 51 34
a 51 284
a 51 416
a 51 417
a 51 418
a 51 170
a 51 393
a 51 465
a 51 285
a 51 466
a 51 372
a 51 286
a 51 287
a 51 288
a 51 289
a 51 290
a 51 331
a 51 467
a 51 419
a 51 373
a 51 420
a 51 421
a 51 422
a 51 423
a 51 35
a 51 291
a 51 292
a 51 111
a 51 424
a 51 293
a 51 294
a 51 295
a 51 296
a 51 297
a 51 36
a 51 470
a 51 425
a 51 37
a 51 171
a 51 298
a 51 426
a 51 299
a 51 38
a 51 300
a 51 172
a 51 301
a 51 302
a 51 303
a 51 304
a 51 471
a 51 472
a 51 305
a 51 173
a 51 306
a 51 307
a 51 427
a 51 144
a 51 394
a 51 374
a 51 174
a 51 428
a 51 429
a 51 112
a 51 175
a 51 375
a 51 176
a 51 430
a 51 431
a 51 308
a 51 473
a 51 135
a 51 177
a 51 178
a 51 179
a 51 136
a 51 432
a 51 39
a 51 376
a 51 433
a 51 309
a 51 40
a 51 41
a 51 113
a 51 42
a 51 43
a 51 44
a 51 45
a 51 180
a 51 46
a 51 114
a 51 47
a 51 48
a 51 49
a 51 115
a 51 50
a 51 138
a 51 165
a 51 52
a 51 53
a 51 54
a 51 55
a 51 181
a 51 56
a 51 57
a 51 58
a 51 59
a 51 60
a 51 99
a 51 183
a 51 61
a 51 62
a 51 436
a 51 184
a 51 63
a 51 434
a 51 310
a 51 435
a 51 311
a 51 182
a 51 312
a 51 116
a 52 2
a 52 5
a 52 3
a 52 1
a 52 100
a 52 120
a 52 121
a 52 137
a 52 6
a 52 314
a 52 315
a 52 316
a 52 318
a 52 317
a 52 7
a 52 8
a 52 186
a 52 193
a 52 196
a 52 197
a 52 340
a 52 148
a 52 217
a 52 346
a 52 149
a 52 347
a 52 348
a 52 64
a 52 65
a 52 66
a 52 382
a 52 122
a 52 123
a 52 67
a 52 124
a 52 68
a 52 125
a 52 69
a 52 70
a 52 71
a 52 72
a 52 383
a 52 73
a 52 74
a 52 75
a 52 76
a 52 77
a 52 78
a 52 79
a 52 80
a 52 81
a 52 82
a 52 83
a 52 84
a 52 85
a 52 387
a 52 86
a 52 87
a 52 138
a 52 10
a 52 126
a 52 88
a 52 89
a 52 90
a 52 91
a 52 101
a 52 92
a 52 93
a 52 440
a 52 94
a 52 95
a 52 102
a 52 150
a 52 388
a 52 389
a 52 151
a 52 397
a 52 218
a 52 377
a 52 378
a 52 442
a 52 11
a 52 139
a 52 103
a 52 443
a 52 444
a 52 482
a 52 219
a 52 220
a 52 386
a 52 350
a 52 446
a 52 391
a 52 221
a 52 104
a 52 222
a 52 379
a 52 223
a 52 224
a 52 225
a 52 226
a 52 227
a 52 380
a 52 228
a 52 381
a 52 12
a 52 13
a 52 229
a 52 447
a 52 448
a 52 230
a 52 398
a 52 231
a 52 399
a 52 400
a 52 401
a 52 402
a 52 450
a 52 451
a 52 140
a 52 141
a 52 142
a 52 105
a 52 232
a 52 233
a 52 154
a 52 155
a 52 106
a 52 156
a 52 157
a 52 158
a 52 107
a 52 234
a 52 14
a 52 15
a 52 403
a 52 133
a 52 134
a 52 16
a 52 159
a 52 404
a 52 160
a 52 405
a 52 452
a 52 453
a 52 17
a 52 18
a 52 19
a 52 319
a 52 96
a 52 235
a 52 352
a 52 455
a 52 20
a 52 236
a 52 237
a 52 238
a 52 239
a 52 97
a 52 108
a 52 98
a 52 320
a 52 143
a 52 240
a 52 21
a 52 241
a 52 242
a 52 22
a 52 353
a 52 127
a 52 128
a 52 23
a 52 392
a 52 243
a 52 457
a 52 161
a 52 459
a 52 164
a 52 109
a 52 244
a 52 245
a 52 354
a 52 246
a 52 355
a 52 356
a 52 247
a 52 248
a 52 249
a 52 250
a 52 166
a 52 359
a 52 321
a 52 251
a 52 252
a 52 253
a 52 24
a 52 254
a 52 360
a 52 322
a 52 255
a 52 361
a 52 25
a 52 256
a 52 26
a 52 460
a 52 362
a 52 257
a 52 258
a 52 259
a 52 260
a 52 261
a 52 262
a 52 263
a 52 264
a 52 406
a 52 265
a 52 266
a 52 323
a 52 363
a 52 129
a 52 324
a 52 364
a 52 365
a 52 407
a 52 267
a 52 268
a 52 27
a 52 269
a 52 408
a 52 462
a 52 270
a 52 271
a 52 272
a 52 130
a 52 110
a 52 463
a 52 28
a 52 29
a 52 273
a 52 274
a 52 366
a 52 30
a 52 464
a 52 275
a 52 367
a 52 167
a 52 276
a 52 168
a 52 31
a 52 169
a 52 277
a 52 325
a 52 409
a 52 410
a 52 326
a 52 327
a 52 328
a 52 278
a 52 368
a 52 279
a 52 329
a 52 369
a 52 411
a 52 384
a 52 412
a 52 413
a 52 414
a 52 370
a 52 280
a 52 281
a 52 282
a 52 330
a 52 371
a 52 283
a 52 415
a 52 32
a 52 33
a 52 34
a 52 284
a 52 416
a 52 417
a 52 418
a 52 170
a 52 393
a 52 465
a 52 285
a 52 466
a 52 372
a 52 286
a 52 287
a 52 288
a 52 289
a 52 290
a 52 331
a 52 467
a 52 419
a 52 373
a 52 420
a 52 421
a 52 422
a 52 468
a 52 469
a 52 423
a 52 35
a 52 291
a 52 292
a 52 111
a 52 424
a 52 293
a 52 294
a 52 295
a 52 296
a 52 297
a 52 36
a 52 470
a 52 425
a 52 37
a 52 171
a 52 298
a 52 426
a 52 299
a 52 38
a 52 300
a 52 172
a 52 301
a 52 302
a 52 303
a 52 304
a 52 471
a 52 472
a 52 305
a 52 173
a 52 306
a 52 307
a 52 427
a 52 144
a 52 394
a 52 374
a 52 174
a 52 428
a 52 429
a 52 112
a 52 175
a 52 375
a 52 176
a 52 430
a 52 431
a 52 308
a 52 473
a 52 135
a 52 177
a 52 178
a 52 179
a 52 136
a 52 474
a 52 475
a 52 432
a 52 39
a 52 376
a 52 433
a 52 309
a 52 40
a 52 41
a 52 113
a 52 42
a 52 43
a 52 44
a 52 45
a 52 180
a 52 46
a 52 114
a 52 47
a 52 48
a 52 49
a 52 115
a 52 50
a 52 51
a 52 119
a 52 147
a 52 152
a 52 162
a 52 163
a 52 165
a 52 53
a 52 434
a 52 54
a 52 55
a 52 181
a 52 56
a 52 57
a 52 58
a 52 59
a 52 60
a 52 99
a 52 182
a 52 183
a 52 61
a 52 62
a 52 436
a 52 184
a 52 63
a 52 435
a 52 311
a 52 312
a 52 116
a 52 396
a 52 313
a 52 476
a 53 2
a 53 5
a 53 3
a 53 4
a 53 117
a 53 1
a 53 100
a 53 131
a 53 118
a 53 119
a 53 145
a 53 120
a 53 146
a 53 132
a 53 121
a 53 147
a 53 137
a 53 6
a 53 314
a 53 315
a 53 316
a 53 318
a 53 317
a 53 7
a 53 8
a 53 186
a 53 187
a 53 188
a 53 189
a 53 332
a 53 190
a 53 191
a 53 192
a 53 193
a 53 194
a 53 195
a 53 196
a 53 333
a 53 197
a 53 198
a 53 199
a 53 200
a 53 334
a 53 201
a 53 202
a 53 335
a 53 336
a 53 203
a 53 204
a 53 205
a 53 206
a 53 337
a 53 338
a 53 437
a 53 207
a 53 208
a 53 209
a 53 339
a 53 340
a 53 148
a 53 341
a 53 9
a 53 395
a 53 342
a 53 438
a 53 210
a 53 211
a 53 212
a 53 213
a 53 343
a 53 214
a 53 215
a 53 344
a 53 216
a 53 345
a 53 217
a 53 346
a 53 439
a 53 149
a 53 347
a 53 348
a 53 64
a 53 65
a 53 66
a 53 382
a 53 122
a 53 123
a 53 67
a 53 124
a 53 68
a 53 125
a 53 69
a 53 70
a 53 71
a 53 72
a 53 383
a 53 73
a 53 74
a 53 75
a 53 76
a 53 77
a 53 78
a 53 79
a 53 80
a 53 81
a 53 82
a 53 83
a 53 84
a 53 85
a 53 387
a 53 86
a 53 87
a 53 138
a 53 10
a 53 126
a 53 88
a 53 89
a 53 90
a 53 91
a 53 101
a 53 92
a 53 93
a 53 440
a 53 94
a 53 95
a 53 102
a 53 150
a 53 388
a 53 389
a 53 151
a 53 397
a 53 218
a 53 390
a 53 377
a 53 378
a 53 442
a 53 11
a 53 139
a 53 103
a 53 443
a 53 444
a 53 482
a 53 219
a 53 220
a 53 386
a 53 350
a 53 152
a 53 153
a 53 445
a 53 446
a 53 483
a 53 391
a 53 221
a 53 104
a 53 222
a 53 379
a 53 223
a 53 224
a 53 225
a 53 226
a 53 227
a 53 380
a 53 228
a 53 381
a 53 12
a 53 13
a 53 229
a 53 447
a 53 448
a 53 230
a 53 398
a 53 231
a 53 449
a 53 399
a 53 400
a 53 401
a 53 402
a 53 450
a 53 451
a 53 140
a 53 141
a 53 142
a 53 105
a 53 232
a 53 233
a 53 154
a 53 155
a 53 106
a 53 157
a 53 158
a 53 107
a 53 234
a 53 14
a 53 15
a 53 403
a 53 133
a 53 134
a 53 484
a 53 16
a 53 159
a 53 404
a 53 160
a 53 405
a 53 452
a 53 453
a 53 454
a 53 17
a 53 18
a 53 19
a 53 319
a 53 96
a 53 235
a 53 352
a 53 455
a 53 20
a 53 236
a 53 237
a 53 238
a 53 239
a 53 97
a 53 108
a 53 98
a 53 320
a 53 143
a 53 240
a 53 21
a 53 241
a 53 242
a 53 22
a 53 353
a 53 127
a 53 128
a 53 23
a 53 392
a 53 456
a 53 243
a 53 457
a 53 458
a 53 161
a 53 459
a 53 162
a 53 163
a 53 164
a 53 109
a 53 244
a 53 245
a 53 354
a 53 246
a 53 355
a 53 356
a 53 247
a 53 165
a 53 248
a 53 249
a 53 250
a 53 166
a 53 359
a 53 321
a 53 251
a 53 252
a 53 253
a 53 24
a 53 254
a 53 360
a 53 322
a 53 255
a 53 361
a 53 25
a 53 479
a 53 480
a 53 256
a 53 26
a 53 460
a 53 362
a 53 257
a 53 258
a 53 259
a 53 260
a 53 261
a 53 262
a 53 263
a 53 264
a 53 406
a 53 265
a 53 266
a 53 323
a 53 363
a 53 461
a 53 129
a 53 324
a 53 364
a 53 365
a 53 407
a 53 267
a 53 268
a 53 27
a 53 269
a 53 408
a 53 462
a 53 270
a 53 271
a 53 272
a 53 130
a 53 110
a 53 463
a 53 28
a 53 29
a 53 273
a 53 274
a 53 366
a 53 30
a 53 464
a 53 275
a 53 367
a 53 167
a 53 276
a 53 168
a 53 31
a 53 169
a 53 277
a 53 325
a 53 409
a 53 410
a 53 326
a 53 327
a 53 328
a 53 278
a 53 368
a 53 279
a 53 329
a 53 369
a 53 411
a 53 384
a 53 412
a 53 413
a 53 414
a 53 370
a 53 280
a 53 281
a 53 282
a 53 330
a 53 371
a 53 283
a 53 415
a 53 32
a 53 33
a 53 34
a 53 284
a 53 416
a 53 417
a 53 418
a 53 170
a 53 393
a 53 465
a 53 285
a 53 466
a 53 372
a 53 286
a 53 287
a 53 288
a 53 289
a 53 290
a 53 331
a 53 467
a 53 419
a 53 373
a 53 420
a 53 421
a 53 422
a 53 468
a 53 469
a 53 423
a 53 35
a 53 291
a 53 292
a 53 111
a 53 424
a 53 293
a 53 294
a 53 295
a 53 296
a 53 297
a 53 36
a 53 470
a 53 425
a 53 37
a 53 171
a 53 298
a 53 426
a 53 299
a 53 38
a 53 300
a 53 172
a 53 301
a 53 302
a 53 303
a 53 304
a 53 471
a 53 472
a 53 305
a 53 173
a 53 306
a 53 307
a 53 427
a 53 144
a 53 394
a 53 374
a 53 174
a 53 428
a 53 429
a 53 112
a 53 175
a 53 375
a 53 176
a 53 430
a 53 431
a 53 308
a 53 473
a 53 135
a 53 177
a 53 178
a 53 179
a 53 136
a 53 474
a 53 475
a 53 432
a 53 39
a 53 376
a 53 433
a 53 309
a 53 40
a 53 41
a 53 113
a 53 42
a 53 43
a 53 44
a 53 45
a 53 180
a 53 46
a 53 114
a 53 47
a 53 48
a 53 49
a 53 115
a 53 50
a 53 51
a 53 52
a 53 434
a 53 54
a 53 55
a 53 181
a 53 56
a 53 57
a 53 58
a 53 59
a 53 60
a 53 311
a 53 99
a 53 182
a 53 183
a 53 61
a 53 62
a 53 436
a 53 184
a 53 63
a 53 310
a 53 435
a 53 312
a 53 116
a 53 396
a 53 385
a 53 476
a 54 2
a 54 5
a 54 3
a 54 4
a 54 117
a 54 1
a 54 100
a 54 131
a 54 118
a 54 119
a 54 145
a 54 120
a 54 146
a 54 132
a 54 121
a 54 147
a 54 137
a 54 6
a 54 314
a 54 315
a 54 316
a 54 318
a 54 317
a 54 7
a 54 8
a 54 186
a 54 187
a 54 188
a 54 189
a 54 332
a 54 190
a 54 191
a 54 193
a 54 194
a 54 195
a 54 196
a 54 333
a 54 197
a 54 198
a 54 199
a 54 200
a 54 334
a 54 201
a 54 202
a 54 335
a 54 336
a 54 203
a 54 204
a 54 205
a 54 206
a 54 337
a 54 338
a 54 437
a 54 207
a 54 208
a 54 209
a 54 339
a 54 340
a 54 148
a 54 341
a 54 9
a 54 395
a 54 342
a 54 438
a 54 210
a 54 211
a 54 212
a 54 213
a 54 343
a 54 214
a 54 215
a 54 344
a 54 216
a 54 345
a 54 217
a 54 346
a 54 439
a 54 149
a 54 347
a 54 348
a 54 64
a 54 65
a 54 66
a 54 382
a 54 122
a 54 123
a 54 67
a 54 124
a 54 68
a 54 125
a 54 69
a 54 70
a 54 71
a 54 72
a 54 383
a 54 73
a 54 74
a 54 75
a 54 76
a 54 77
a 54 78
a 54 79
a 54 80
a 54 81
a 54 82
a 54 83
a 54 84
a 54 85
a 54 387
a 54 86
a 54 87
a 54 138
a 54 10
a 54 126
a 54 88
a 54 89
a 54 90
a 54 91
a 54 101
a 54 92
a 54 93
a 54 440
a 54 94
a 54 95
a 54 102
a 54 150
a 54 388
a 54 389
a 54 151
a 54 397
a 54 218
a 54 390
a 54 377
a 54 441
a 54 478
a 54 349
a 54 477
a 54 378
a 54 442
a 54 11
a 54 139
a 54 103
a 54 443
a 54 444
a 54 482
a 54 487
a 54 219
a 54 220
a 54 386
a 54 350
a 54 152
a 54 153
a 54 445
a 54 446
a 54 483
a 54 391
a 54 221
a 54 104
a 54 222
a 54 379
a 54 223
a 54 224
a 54 225
a 54 226
a 54 227
a 54 380
a 54 228
a 54 381
a 54 12
a 54 13
a 54 229
a 54 447
a 54 448
a 54 230
a 54 398
a 54 231
a 54 449
a 54 399
a 54 400
a 54 401
a 54 402
a 54 450
a 54 451
a 54 140
a 54 141
a 54 142
a 54 105
a 54 232
a 54 233
a 54 154
a 54 155
a 54 106
a 54 156
a 54 157
a 54 158
a 54 107
a 54 234
a 54 14
a 54 15
a 54 403
a 54 133
a 54 134
a 54 484
a 54 16
a 54 159
a 54 404
a 54 160
a 54 405
a 54 452
a 54 453
a 54 454
a 54 17
a 54 18
a 54 351
a 54 19
a 54 319
a 54 96
a 54 235
a 54 352
a 54 455
a 54 20
a 54 236
a 54 237
a 54 238
a 54 239
a 54 97
a 54 108
a 54 98
a 54 320
a 54 143
a 54 240
a 54 21
a 54 241
a 54 242
a 54 22
a 54 353
a 54 485
a 54 127
a 54 128
a 54 23
a 54 392
a 54 456
a 54 243
a 54 457
a 54 458
a 54 161
a 54 459
a 54 162
a 54 163
a 54 164
a 54 109
a 54 244
a 54 245
a 54 354
a 54 246
a 54 355
a 54 356
a 54 357
a 54 247
a 54 165
a 54 248
a 54 249
a 54 250
a 54 166
a 54 359
a 54 321
a 54 251
a 54 252
a 54 253
a 54 24
a 54 254
a 54 360
a 54 322
a 54 255
a 54 361
a 54 25
a 54 479
a 54 480
a 54 256
a 54 26
a 54 460
a 54 362
a 54 257
a 54 258
a 54 259
a 54 260
a 54 261
a 54 262
a 54 263
a 54 264
a 54 406
a 54 265
a 54 266
a 54 323
a 54 363
a 54 461
a 54 129
a 54 324
a 54 364
a 54 365
a 54 407
a 54 267
a 54 268
a 54 27
a 54 269
a 54 408
a 54 462
a 54 270
a 54 271
a 54 272
a 54 130
a 54 110
a 54 463
a 54 28
a 54 29
a 54 273
a 54 274
a 54 366
a 54 30
a 54 464
a 54 275
a 54 367
a 54 167
a 54 276
a 54 168
a 54 31
a 54 169
a 54 277
a 54 325
a 54 409
a 54 410
a 54 326
a 54 327
a 54 328
a 54 278
a 54 368
a 54 279
a 54 329
a 54 369
a 54 411
a 54 384
a 54 412
a 54 413
a 54 414
a 54 370
a 54 280
a 54 281
a 54 282
a 54 330
a 54 371
a 54 283
a 54 415
a 54 32
a 54 33
a 54 34
a 54 284
a 54 416
a 54 417
a 54 418
a 54 170
a 54 393
a 54 465
a 54 285
a 54 466
a 54 372
a 54 286
a 54 287
a 54 288
a 54 289
a 54 290
a 54 331
a 54 467
a 54 419
a 54 373
a 54 420
a 54 421
a 54 422
a 54 468
a 54 469
a 54 423
a 54 35
a 54 291
a 54 292
a 54 111
a 54 424
a 54 293
a 54 294
a 54 295
a 54 296
a 54 297
a 54 36
a 54 470
a 54 425
a 54 37
a 54 171
a 54 298
a 54 426
a 54 299
a 54 38
a 54 300
a 54 172
a 54 301
a 54 302
a 54 303
a 54 304
a 54 471
a 54 472
a 54 305
a 54 173
a 54 306
a 54 307
a 54 427
a 54 144
a 54 394
a 54 374
a 54 174
a 54 428
a 54 429
a 54 112
a 54 175
a 54 375
a 54 176
a 54 430
a 54 431
a 54 308
a 54 473
a 54 135
a 54 177
a 54 178
a 54 179
a 54 136
a 54 474
a 54 475
a 54 432
a 54 39
a 54 376
a 54 433
a 54 309
a 54 40
a 54 41
a 54 113
a 54 42
a 54 43
a 54 44
a 54 45
a 54 180
a 54 46
a 54 486
a 54 114
a 54 47
a 54 48
a 54 49
a 54 115
a 54 50
a 54 51
a 54 52
a 54 53
a 54 434
a 54 310
a 54 55
a 54 181
a 54 56
a 54 57
a 54 58
a 54 59
a 54 60
a 54 99
a 54 182
a 54 116
a 54 183
a 54 61
a 54 62
a 54 436
a 54 184
a 54 63
a 54 435
a 54 311
a 54 312
a 54 396
a 54 385
a 54 313
a 54 476
a 55 2
a 55 5
a 55 3
a 55 1
a 55 100
a 55 120
a 55 121
a 55 137
a 55 6
a 55 314
a 55 315
a 55 316
a 55 318
a 55 317
a 55 7
a 55 8
a 55 186
a 55 187
a 55 188
a 55 189
a 55 332
a 55 190
a 55 191
a 55 193
a 55 194
a 55 195
a 55 196
a 55 197
a 55 198
a 55 199
a 55 200
a 55 201
a 55 202
a 55 203
a 55 204
a 55 205
a 55 206
a 55 337
a 55 338
a 55 437
a 55 207
a 55 208
a 55 209
a 55 340
a 55 148
a 55 341
a 55 395
a 55 342
a 55 438
a 55 210
a 55 212
a 55 213
a 55 214
a 55 215
a 55 344
a 55 216
a 55 345
a 55 217
a 55 346
a 55 439
a 55 149
a 55 347
a 55 348
a 55 64
a 55 65
a 55 66
a 55 122
a 55 123
a 55 67
a 55 124
a 55 68
a 55 125
a 55 69
a 55 70
a 55 71
a 55 72
a 55 383
a 55 73
a 55 74
a 55 75
a 55 76
a 55 77
a 55 78
a 55 79
a 55 80
a 55 81
a 55 82
a 55 83
a 55 84
a 55 85
a 55 387
a 55 86
a 55 87
a 55 138
a 55 10
a 55 126
a 55 88
a 55 89
a 55 90
a 55 91
a 55 101
a 55 92
a 55 93
a 55 440
a 55 94
a 55 95
a 55 102
a 55 150
a 55 388
a 55 389
a 55 151
a 55 397
a 55 218
a 55 390
a 55 377
a 55 441
a 55 349
a 55 477
a 55 378
a 55 442
a 55 11
a 55 139
a 55 103
a 55 443
a 55 444
a 55 482
a 55 219
a 55 220
a 55 386
a 55 350
a 55 152
a 55 153
a 55 445
a 55 446
a 55 483
a 55 391
a 55 221
a 55 104
a 55 222
a 55 379
a 55 223
a 55 224
a 55 225
a 55 226
a 55 227
a 55 380
a 55 228
a 55 381
a 55 12
a 55 13
a 55 229
a 55 447
a 55 448
a 55 230
a 55 398
a 55 231
a 55 449
a 55 399
a 55 400
a 55 401
a 55 402
a 55 450
a 55 451
a 55 140
a 55 141
a 55 142
a 55 105
a 55 232
a 55 233
a 55 154
a 55 155
a 55 106
a 55 156
a 55 157
a 55 158
a 55 107
a 55 234
a 55 14
a 55 15
a 55 403
a 55 133
a 55 134
a 55 484
a 55 16
a 55 159
a 55 404
a 55 160
a 55 405
a 55 452
a 55 453
a 55 454
a 55 17
a 55 18
a 55 351
a 55 19
a 55 319
a 55 96
a 55 235
a 55 352
a 55 455
a 55 20
a 55 236
a 55 237
a 55 238
a 55 239
a 55 97
a 55 108
a 55 98
a 55 320
a 55 143
a 55 240
a 55 21
a 55 241
a 55 242
a 55 22
a 55 353
a 55 485
a 55 127
a 55 128
a 55 23
a 55 392
a 55 456
a 55 243
a 55 457
a 55 161
a 55 459
a 55 162
a 55 163
a 55 164
a 55 109
a 55 244
a 55 245
a 55 354
a 55 246
a 55 355
a 55 356
a 55 357
a 55 358
a 55 247
a 55 165
a 55 248
a 55 249
a 55 250
a 55 166
a 55 359
a 55 321
a 55 251
a 55 252
a 55 253
a 55 24
a 55 254
a 55 360
a 55 322
a 55 255
a 55 361
a 55 25
a 55 479
a 55 480
a 55 256
a 55 26
a 55 460
a 55 362
a 55 257
a 55 258
a 55 259
a 55 260
a 55 261
a 55 262
a 55 263
a 55 264
a 55 406
a 55 265
a 55 266
a 55 323
a 55 363
a 55 461
a 55 129
a 55 324
a 55 364
a 55 365
a 55 407
a 55 267
a 55 268
a 55 27
a 55 269
a 55 408
a 55 462
a 55 270
a 55 271
a 55 272
a 55 130
a 55 110
a 55 463
a 55 28
a 55 29
a 55 273
a 55 274
a 55 366
a 55 30
a 55 464
a 55 275
a 55 367
a 55 167
a 55 276
a 55 168
a 55 31
a 55 169
a 55 277
a 55 325
a 55 409
a 55 410
a 55 326
a 55 327
a 55 328
a 55 278
a 55 368
a 55 279
a 55 329
a 55 369
a 55 411
a 55 384
a 55 412
a 55 413
a 55 414
a 55 370
a 55 280
a 55 281
a 55 282
a 55 330
a 55 371
a 55 283
a 55 415
a 55 32
a 55 33
a 55 34
a 55 284
a 55 416
a 55 417
a 55 418
a 55 170
a 55 393
a 55 465
a 55 285
a 55 466
a 55 372
a 55 286
a 55 287
a 55 288
a 55 289
a 55 290
a 55 331
a 55 467
a 55 419
a 55 373
a 55 420
a 55 421
a 55 422
a 55 468
a 55 469
a 55 423
a 55 35
a 55 291
a 55 292
a 55 111
a 55 424
a 55 293
a 55 294
a 55 295
a 55 296
a 55 297
a 55 36
a 55 470
a 55 425
a 55 37
a 55 171
a 55 298
a 55 426
a 55 299
a 55 38
a 55 300
a 55 172
a 55 301
a 55 302
a 55 303
a 55 304
a 55 471
a 55 472
a 55 305
a 55 173
a 55 306
a 55 307
a 55 427
a 55 144
a 55 394
a 55 374
a 55 174
a 55 428
a 55 429
a 55 112
a 55 175
a 55 375
a 55 176
a 55 430
a 55 431
a 55 308
a 55 473
a 55 135
a 55 177
a 55 178
a 55 179
a 55 136
a 55 474
a 55 475
a 55 432
a 55 39
a 55 376
a 55 433
a 55 309
a 55 40
a 55 41
a 55 113
a 55 42
a 55 43
a 55 44
a 55 45
a 55 180
a 55 46
a 55 114
a 55 47
a 55 48
a 55 49
a 55 115
a 55 50
a 55 51
a 55 52
a 55 53
a 55 434
a 55 54
a 55 119
a 55 147
a 55 382
a 55 181
a 55 56
a 55 57
a 55 58
a 55 59
a 55 60
a 55 99
a 55 183
a 55 61
a 55 62
a 55 184
a 55 63
a 55 435
a 55 311
a 55 182
a 55 312
a 55 116
a 55 396
a 55 476
a 55 436
a 56 2
a 56 5
a 56 3
a 56 4
a 56 117
a 56 1
a 56 100
a 56 131
a 56 118
a 56 119
a 56 145
a 56 120
a 56 146
a 56 132
a 56 121
a 56 147
a 56 137
a 56 6
a 56 314
a 56 315
a 56 316
a 56 318
a 56 317
a 56 7
a 56 8
a 56 186
a 56 187
a 56 188
a 56 189
a 56 332
a 56 190
a 56 191
a 56 192
a 56 193
a 56 194
a 56 195
a 56 196
a 56 333
a 56 197
a 56 198
a 56 199
a 56 200
a 56 334
a 56 201
a 56 202
a 56 335
a 56 336
a 56 203
a 56 204
a 56 205
a 56 206
a 56 337
a 56 338
a 56 437
a 56 207
a 56 208
a 56 209
a 56 339
a 56 340
a 56 148
a 56 341
a 56 9
a 56 395
a 56 342
a 56 438
a 56 210
a 56 211
a 56 212
a 56 213
a 56 343
a 56 214
a 56 215
a 56 344
a 56 216
a 56 345
a 56 217
a 56 346
a 56 439
a 56 149
a 56 347
a 56 348
a 56 64
a 56 65
a 56 66
a 56 382
a 56 122
a 56 123
a 56 67
a 56 124
a 56 68
a 56 125
a 56 69
a 56 70
a 56 71
a 56 72
a 56 383
a 56 73
a 56 74
a 56 75
a 56 76
a 56 77
a 56 78
a 56 79
a 56 80
a 56 81
a 56 82
a 56 83
a 56 84
a 56 85
a 56 387
a 56 86
a 56 87
a 56 138
a 56 10
a 56 126
a 56 88
a 56 89
a 56 90
a 56 91
a 56 101
a 56 92
a 56 93
a 56 440
a 56 94
a 56 95
a 56 102
a 56 150
a 56 388
a 56 389
a 56 151
a 56 397
a 56 218
a 56 390
a 56 377
a 56 441
a 56 478
a 56 349
a 56 477
a 56 378
a 56 442
a 56 11
a 56 139
a 56 103
a 56 443
a 56 444
a 56 482
a 56 481
a 56 219
a 56 220
a 56 386
a 56 350
a 56 152
a 56 153
a 56 445
a 56 446
a 56 483
a 56 391
a 56 221
a 56 104
a 56 222
a 56 379
a 56 223
a 56 224
a 56 225
a 56 226
a 56 227
a 56 380
a 56 228
a 56 381
a 56 12
a 56 13
a 56 229
a 56 447
a 56 448
a 56 230
a 56 398
a 56 231
a 56 449
a 56 399
a 56 400
a 56 401
a 56 402
a 56 450
a 56 451
a 56 140
a 56 141
a 56 142
a 56 105
a 56 232
a 56 233
a 56 154
a 56 155
a 56 106
a 56 156
a 56 157
a 56 158
a 56 107
a 56 234
a 56 14
a 56 15
a 56 403
a 56 133
a 56 134
a 56 484
a 56 16
a 56 159
a 56 404
a 56 160
a 56 405
a 56 452
a 56 453
a 56 454
a 56 17
a 56 18
a 56 351
a 56 19
a 56 319
a 56 96
a 56 235
a 56 352
a 56 455
a 56 20
a 56 236
a 56 237
a 56 238
a 56 239
a 56 97
a 56 108
a 56 98
a 56 320
a 56 143
a 56 240
a 56 21
a 56 241
a 56 242
a 56 22
a 56 353
a 56 485
a 56 127
a 56 128
a 56 23
a 56 392
a 56 456
a 56 243
a 56 457
a 56 458
a 56 161
a 56 459
a 56 162
a 56 163
a 56 164
a 56 109
a 56 244
a 56 245
a 56 354
a 56 246
a 56 355
a 56 356
a 56 357
a 56 358
a 56 247
a 56 165
a 56 248
a 56 249
a 56 250
a 56 166
a 56 359
a 56 321
a 56 251
a 56 252
a 56 253
a 56 24
a 56 254
a 56 360
a 56 322
a 56 255
a 56 361
a 56 25
a 56 479
a 56 480
a 56 256
a 56 26
a 56 460
a 56 362
a 56 257
a 56 258
a 56 259
a 56 260
a 56 261
a 56 262
a 56 263
a 56 264
a 56 406
a 56 265
a 56 266
a 56 323
a 56 363
a 56 461
a 56 129
a 56 324
a 56 364
a 56 365
a 56 407
a 56 267
a 56 268
a 56 27
a 56 269
a 56 408
a 56 462
a 56 270
a 56 271
a 56 272
a 56 130
a 56 110
a 56 463
a 56 28
a 56 29
a 56 273
a 56 274
a 56 366
a 56 30
a 56 464
a 56 275
a 56 367
a 56 167
a 56 276
a 56 168
a 56 31
a 56 169
a 56 277
a 56 325
a 56 409
a 56 410
a 56 326
a 56 327
a 56 328
a 56 278
a 56 368
a 56 279
a 56 329
a 56 369
a 56 411
a 56 384
a 56 412
a 56 413
a 56 414
a 56 370
a 56 280
a 56 281
a 56 282
a 56 330
a 56 371
a 56 283
a 56 415
a 56 32
a 56 33
a 56 34
a 56 284
a 56 416
a 56 417
a 56 418
a 56 170
a 56 393
a 56 465
a 56 285
a 56 466
a 56 372
a 56 286
a 56 287
a 56 288
a 56 289
a 56 290
a 56 331
a 56 467
a 56 419
a 56 373
a 56 420
a 56 421
a 56 422
a 56 468
a 56 469
a 56 423
a 56 35
a 56 291
a 56 292
a 56 111
a 56 424
a 56 293
a 56 294
a 56 295
a 56 296
a 56 297
a 56 36
a 56 470
a 56 425
a 56 37
a 56 171
a 56 298
a 56 426
a 56 299
a 56 38
a 56 300
a 56 172
a 56 301
a 56 302
a 56 303
a 56 304
a 56 471
a 56 472
a 56 305
a 56 173
a 56 306
a 56 307
a 56 427
a 56 144
a 56 394
a 56 374
a 56 174
a 56 428
a 56 429
a 56 112
a 56 175
a 56 375
a 56 176
a 56 430
a 56 431
a 56 308
a 56 473
a 56 135
a 56 177
a 56 178
a 56 179
a 56 136
a 56 474
a 56 475
a 56 432
a 56 39
a 56 376
a 56 433
a 56 309
a 56 40
a 56 41
a 56 113
a 56 42
a 56 43
a 56 44
a 56 45
a 56 180
a 56 46
a 56 486
a 56 114
a 56 47
a 56 48
a 56 49
a 56 115
a 56 50
a 56 51
a 56 52
a 56 53
a 56 434
a 56 310
a 56 54
a 56 55
a 56 181
a 56 435
a 56 57
a 56 58
a 56 59
a 56 60
a 56 99
a 56 183
a 56 61
a 56 62
a 56 436
a 56 184
a 56 63
a 56 185
a 56 311
a 56 182
a 56 312
a 56 116
a 56 396
a 56 385
a 56 313
a 56 476
a 57 2
a 57 5
a 57 3
a 57 4
a 57 117
a 57 1
a 57 100
a 57 118
a 57 119
a 57 145
a 57 120
a 57 146
a 57 121
a 57 147
a 57 137
a 57 6
a 57 314
a 57 315
a 57 316
a 57 318
a 57 317
a 57 7
a 57 8
a 57 186
a 57 187
a 57 188
a 57 189
a 57 332
a 57 190
a 57 191
a 57 193
a 57 194
a 57 195
a 57 196
a 57 333
a 57 197
a 57 198
a 57 199
a 57 200
a 57 201
a 57 202
a 57 336
a 57 203
a 57 204
a 57 205
a 57 206
a 57 337
a 57 338
a 57 437
a 57 207
a 57 208
a 57 209
a 57 339
a 57 340
a 57 148
a 57 341
a 57 9
a 57 395
a 57 342
a 57 438
a 57 210
a 57 212
a 57 213
a 57 343
a 57 214
a 57 215
a 57 344
a 57 216
a 57 345
a 57 217
a 57 346
a 57 439
a 57 149
a 57 347
a 57 348
a 57 64
a 57 65
a 57 66
a 57 382
a 57 122
a 57 123
a 57 67
a 57 124
a 57 68
a 57 125
a 57 69
a 57 70
a 57 71
a 57 72
a 57 383
a 57 73
a 57 74
a 57 75
a 57 76
a 57 77
a 57 78
a 57 79
a 57 80
a 57 81
a 57 82
a 57 83
a 57 84
a 57 85
a 57 387
a 57 86
a 57 87
a 57 138
a 57 10
a 57 126
a 57 88
a 57 89
a 57 90
a 57 91
a 57 101
a 57 92
a 57 93
a 57 440
a 57 94
a 57 95
a 57 102
a 57 150
a 57 388
a 57 389
a 57 151
a 57 397
a 57 218
a 57 390
a 57 377
a 57 441
a 57 478
a 57 349
a 57 477
a 57 378
a 57 442
a 57 11
a 57 139
a 57 103
a 57 443
a 57 444
a 57 482
a 57 219
a 57 220
a 57 386
a 57 350
a 57 152
a 57 153
a 57 445
a 57 446
a 57 483
a 57 391
a 57 221
a 57 104
a 57 222
a 57 379
a 57 223
a 57 224
a 57 225
a 57 226
a 57 227
a 57 380
a 57 228
a 57 381
a 57 12
a 57 13
a 57 229
a 57 447
a 57 448
a 57 230
a 57 398
a 57 231
a 57 449
a 57 399
a 57 400
a 57 401
a 57 402
a 57 450
a 57 451
a 57 140
a 57 141
a 57 142
a 57 105
a 57 232
a 57 233
a 57 154
a 57 155
a 57 106
a 57 156
a 57 157
a 57 158
a 57 107
a 57 234
a 57 14
a 57 15
a 57 403
a 57 133
a 57 134
a 57 484
a 57 16
a 57 159
a 57 404
a 57 160
a 57 405
a 57 452
a 57 453
a 57 454
a 57 17
a 57 18
a 57 351
a 57 19
a 57 319
a 57 96
a 57 235
a 57 352
a 57 455
a 57 20
a 57 236
a 57 237
a 57 238
a 57 239
a 57 97
a 57 108
a 57 98
a 57 320
a 57 143
a 57 240
a 57 21
a 57 241
a 57 242
a 57 22
a 57 353
a 57 485
a 57 127
a 57 128
a 57 23
a 57 392
a 57 456
a 57 243
a 57 457
a 57 458
a 57 161
a 57 459
a 57 162
a 57 163
a 57 164
a 57 109
a 57 244
a 57 245
a 57 354
a 57 246
a 57 355
a 57 356
a 57 357
a 57 358
a 57 247
a 57 165
a 57 248
a 57 249
a 57 250
a 57 166
a 57 359
a 57 321
a 57 251
a 57 252
a 57 253
a 57 24
a 57 254
a 57 360
a 57 322
a 57 255
a 57 361
a 57 25
a 57 479
a 57 480
a 57 256
a 57 26
a 57 460
a 57 362
a 57 257
a 57 258
a 57 259
a 57 260
a 57 261
a 57 262
a 57 263
a 57 264
a 57 406
a 57 265
a 57 266
a 57 323
a 57 363
a 57 461
a 57 129
a 57 324
a 57 364
a 57 365
a 57 407
a 57 267
a 57 268
a 57 27
a 57 269
a 57 408
a 57 462
a 57 270
a 57 271
a 57 272
a 57 130
a 57 110
a 57 463
a 57 28
a 57 29
a 57 273
a 57 274
a 57 366
a 57 30
a 57 464
a 57 275
a 57 367
a 57 167
a 57 276
a 57 168
a 57 31
a 57 169
a 57 277
a 57 325
a 57 409
a 57 410
a 57 326
a 57 327
a 57 328
a 57 278
a 57 368
a 57 279
a 57 329
a 57 369
a 57 411
a 57 384
a 57 412
a 57 413
a 57 414
a 57 370
a 57 280
a 57 281
a 57 282
a 57 330
a 57 371
a 57 283
a 57 415
a 57 32
a 57 33
a 57 34
a 57 284
a 57 416
a 57 417
a 57 418
a 57 170
a 57 393
a 57 465
a 57 285
a 57 466
a 57 372
a 57 286
a 57 287
a 57 288
a 57 289
a 57 290
a 57 331
a 57 467
a 57 419
a 57 373
a 57 420
a 57 421
a 57 422
a 57 468
a 57 469
a 57 423
a 57 35
a 57 291
a 57 292
a 57 111
a 57 424
a 57 293
a 57 294
a 57 295
a 57 296
a 57 297
a 57 36
a 57 470
a 57 425
a 57 37
a 57 171
a 57 298
a 57 426
a 57 299
a 57 38
a 57 300
a 57 172
a 57 301
a 57 302
a 57 303
a 57 304
a 57 471
a 57 472
a 57 305
a 57 173
a 57 306
a 57 307
a 57 427
a 57 144
a 57 394
a 57 374
a 57 174
a 57 428
a 57 429
a 57 112
a 57 175
a 57 375
a 57 176
a 57 430
a 57 431
a 57 308
a 57 473
a 57 135
a 57 177
a 57 178
a 57 179
a 57 136
a 57 474
a 57 475
a 57 432
a 57 39
a 57 376
a 57 433
a 57 309
a 57 40
a 57 41
a 57 113
a 57 42
a 57 43
a 57 44
a 57 45
a 57 180
a 57 46
a 57 486
a 57 114
a 57 47
a 57 48
a 57 49
a 57 115
a 57 50
a 57 51
a 57 52
a 57 53
a 57 434
a 57 54
a 57 55
a 57 181
a 57 435
a 57 56
a 57 58
a 57 59
a 57 60
a 57 311
a 57 99
a 57 183
a 57 61
a 57 62
a 57 184
a 57 63
a 57 185
a 57 182
a 57 116
a 57 396
a 57 313
a 57 476
a 58 2
a 58 5
a 58 3
a 58 4
a 58 117
a 58 1
a 58 100
a 58 131
a 58 118
a 58 119
a 58 145
a 58 120
a 58 146
a 58 132
a 58 121
a 58 147
a 58 137
a 58 6
a 58 314
a 58 315
a 58 316
a 58 318
a 58 317
a 58 7
a 58 8
a 58 186
a 58 187
a 58 188
a 58 189
a 58 332
a 58 190
a 58 191
a 58 192
a 58 193
a 58 194
a 58 195
a 58 196
a 58 333
a 58 197
a 58 198
a 58 199
a 58 200
a 58 334
a 58 201
a 58 202
a 58 335
a 58 336
a 58 203
a 58 204
a 58 205
a 58 206
a 58 337
a 58 338
a 58 437
a 58 207
a 58 208
a 58 209
a 58 339
a 58 340
a 58 148
a 58 341
a 58 9
a 58 395
a 58 342
a 58 438
a 58 210
a 58 211
a 58 212
a 58 213
a 58 343
a 58 214
a 58 215
a 58 344
a 58 216
a 58 345
a 58 217
a 58 346
a 58 439
a 58 149
a 58 347
a 58 348
a 58 64
a 58 65
a 58 66
a 58 382
a 58 122
a 58 123
a 58 67
a 58 124
a 58 68
a 58 125
a 58 69
a 58 70
a 58 71
a 58 72
a 58 383
a 58 73
a 58 74
a 58 75
a 58 76
a 58 77
a 58 78
a 58 79
a 58 80
a 58 81
a 58 82
a 58 83
a 58 84
a 58 85
a 58 387
a 58 86
a 58 87
a 58 138
a 58 10
a 58 126
a 58 88
a 58 89
a 58 90
a 58 91
a 58 101
a 58 92
a 58 93
a 58 440
a 58 94
a 58 95
a 58 102
a 58 150
a 58 388
a 58 389
a 58 151
a 58 397
a 58 218
a 58 390
a 58 377
a 58 441
a 58 478
a 58 349
a 58 477
a 58 378
a 58 442
a 58 11
a 58 139
a 58 103
a 58 443
a 58 444
a 58 482
a 58 219
a 58 220
a 58 386
a 58 350
a 58 152
a 58 153
a 58 445
a 58 446
a 58 483
a 58 391
a 58 221
a 58 104
a 58 222
a 58 379
a 58 223
a 58 224
a 58 225
a 58 226
a 58 227
a 58 380
a 58 228
a 58 381
a 58 12
a 58 13
a 58 229
a 58 447
a 58 448
a 58 230
a 58 398
a 58 231
a 58 449
a 58 399
a 58 400
a 58 401
a 58 402
a 58 450
a 58 451
a 58 140
a 58 141
a 58 142
a 58 105
a 58 232
a 58 233
a 58 154
a 58 155
a 58 106
a 58 156
a 58 157
a 58 158
a 58 107
a 58 234
a 58 14
a 58 15
a 58 403
a 58 133
a 58 134
a 58 484
a 58 16
a 58 159
a 58 404
a 58 160
a 58 405
a 58 452
a 58 453
a 58 454
a 58 17
a 58 18
a 58 351
a 58 19
a 58 319
a 58 96
a 58 235
a 58 352
a 58 455
a 58 20
a 58 236
a 58 237
a 58 238
a 58 239
a 58 97
a 58 108
a 58 98
a 58 320
a 58 143
a 58 240
a 58 21
a 58 241
a 58 242
a 58 22
a 58 353
a 58 485
a 58 127
a 58 128
a 58 23
a 58 392
a 58 456
a 58 243
a 58 457
a 58 458
a 58 161
a 58 459
a 58 162
a 58 163
a 58 164
a 58 109
a 58 244
a 58 245
a 58 354
a 58 246
a 58 355
a 58 356
a 58 357
a 58 358
a 58 247
a 58 165
a 58 248
a 58 249
a 58 250
a 58 166
a 58 359
a 58 321
a 58 251
a 58 252
a 58 253
a 58 24
a 58 254
a 58 360
a 58 322
a 58 255
a 58 361
a 58 25
a 58 479
a 58 480
a 58 256
a 58 26
a 58 460
a 58 362
a 58 257
a 58 258
a 58 259
a 58 260
a 58 261
a 58 262
a 58 263
a 58 264
a 58 406
a 58 265
a 58 266
a 58 323
a 58 363
a 58 461
a 58 129
a 58 324
a 58 364
a 58 365
a 58 407
a 58 267
a 58 268
a 58 27
a 58 269
a 58 408
a 58 462
a 58 270
a 58 271
a 58 272
a 58 130
a 58 110
a 58 463
a 58 28
a 58 29
a 58 273
a 58 274
a 58 366
a 58 30
a 58 464
a 58 275
a 58 367
a 58 167
a 58 276
a 58 168
a 58 31
a 58 169
a 58 277
a 58 325
a 58 409
a 58 410
a 58 326
a 58 327
a 58 328
a 58 278
a 58 368
a 58 279
a 58 329
a 58 369
a 58 411
a 58 384
a 58 412
a 58 413
a 58 414
a 58 370
a 58 280
a 58 281
a 58 282
a 58 330
a 58 371
a 58 283
a 58 415
a 58 32
a 58 33
a 58 34
a 58 284
a 58 416
a 58 417
a 58 418
a 58 170
a 58 393
a 58 465
a 58 285
a 58 466
a 58 372
a 58 286
a 58 287
a 58 288
a 58 289
a 58 290
a 58 331
a 58 467
a 58 419
a 58 373
a 58 420
a 58 421
a 58 422
a 58 468
a 58 469
a 58 423
a 58 35
a 58 291
a 58 292
a 58 111
a 58 424
a 58 293
a 58 294
a 58 295
a 58 296
a 58 297
a 58 36
a 58 470
a 58 425
a 58 37
a 58 171
a 58 298
a 58 426
a 58 299
a 58 38
a 58 300
a 58 172
a 58 301
a 58 302
a 58 303
a 58 304
a 58 471
a 58 472
a 58 305
a 58 173
a 58 306
a 58 307
a 58 427
a 58 144
a 58 394
a 58 374
a 58 174
a 58 428
a 58 429
a 58 112
a 58 175
a 58 375
a 58 176
a 58 430
a 58 431
a 58 308
a 58 473
a 58 135
a 58 177
a 58 178
a 58 179
a 58 136
a 58 474
a 58 475
a 58 432
a 58 39
a 58 376
a 58 433
a 58 309
a 58 40
a 58 41
a 58 113
a 58 42
a 58 43
a 58 44
a 58 45
a 58 180
a 58 46
a 58 486
a 58 114
a 58 47
a 58 48
a 58 49
a 58 115
a 58 50
a 58 51
a 58 52
a 58 53
a 58 434
a 58 310
a 58 54
a 58 55
a 58 181
a 58 435
a 58 56
a 58 57
a 58 59
a 58 60
a 58 99
a 58 183
a 58 61
a 58 62
a 58 184
a 58 63
a 58 185
a 58 311
a 58 182
a 58 312
a 58 116
a 58 476
a 58 436
a 59 2
a 59 5
a 59 3
a 59 4
a 59 117
a 59 1
a 59 100
a 59 131
a 59 118
a 59 119
a 59 145
a 59 120
a 59 146
a 59 132
a 59 121
a 59 147
a 59 137
a 59 6
a 59 314
a 59 315
a 59 316
a 59 318
a 59 317
a 59 7
a 59 8
a 59 186
a 59 187
a 59 188
a 59 189
a 59 332
a 59 190
a 59 191
a 59 193
a 59 194
a 59 195
a 59 196
a 59 333
a 59 197
a 59 198
a 59 199
a 59 200
a 59 334
a 59 201
a 59 202
a 59 335
a 59 336
a 59 203
a 59 204
a 59 205
a 59 206
a 59 337
a 59 338
a 59 437
a 59 207
a 59 208
a 59 209
a 59 339
a 59 340
a 59 148
a 59 341
a 59 9
a 59 395
a 59 342
a 59 438
a 59 210
a 59 211
a 59 212
a 59 213
a 59 343
a 59 214
a 59 215
a 59 344
a 59 216
a 59 345
a 59 217
a 59 346
a 59 439
a 59 149
a 59 347
a 59 348
a 59 64
a 59 65
a 59 66
a 59 382
a 59 122
a 59 123
a 59 67
a 59 124
a 59 68
a 59 125
a 59 69
a 59 70
a 59 71
a 59 72
a 59 383
a 59 73
a 59 74
a 59 75
a 59 76
a 59 77
a 59 78
a 59 79
a 59 80
a 59 81
a 59 82
a 59 83
a 59 84
a 59 85
a 59 387
a 59 86
a 59 87
a 59 138
a 59 10
a 59 126
a 59 88
a 59 89
a 59 90
a 59 91
a 59 101
a 59 92
a 59 93
a 59 440
a 59 94
a 59 95
a 59 102
a 59 150
a 59 388
a 59 389
a 59 151
a 59 397
a 59 218
a 59 390
a 59 377
a 59 441
a 59 478
a 59 349
a 59 477
a 59 378
a 59 442
a 59 11
a 59 139
a 59 103
a 59 443
a 59 444
a 59 482
a 59 219
a 59 220
a 59 386
a 59 350
a 59 152
a 59 153
a 59 445
a 59 446
a 59 483
a 59 391
a 59 221
a 59 104
a 59 222
a 59 379
a 59 223
a 59 224
a 59 225
a 59 226
a 59 227
a 59 380
a 59 228
a 59 381
a 59 12
a 59 13
a 59 229
a 59 447
a 59 448
a 59 230
a 59 398
a 59 231
a 59 449
a 59 399
a 59 400
a 59 401
a 59 402
a 59 450
a 59 451
a 59 140
a 59 141
a 59 142
a 59 105
a 59 232
a 59 233
a 59 154
a 59 155
a 59 106
a 59 156
a 59 157
a 59 158
a 59 107
a 59 234
a 59 14
a 59 15
a 59 403
a 59 133
a 59 134
a 59 484
a 59 16
a 59 159
a 59 404
a 59 160
a 59 405
a 59 452
a 59 453
a 59 454
a 59 17
a 59 18
a 59 351
a 59 19
a 59 319
a 59 96
a 59 235
a 59 352
a 59 455
a 59 20
a 59 236
a 59 237
a 59 238
a 59 239
a 59 97
a 59 108
a 59 98
a 59 320
a 59 143
a 59 240
a 59 21
a 59 241
a 59 242
a 59 22
a 59 353
a 59 485
a 59 127
a 59 128
a 59 23
a 59 392
a 59 456
a 59 243
a 59 457
a 59 458
a 59 161
a 59 459
a 59 162
a 59 163
a 59 164
a 59 109
a 59 244
a 59 245
a 59 354
a 59 246
a 59 355
a 59 356
a 59 357
a 59 358
a 59 247
a 59 165
a 59 248
a 59 249
a 59 250
a 59 166
a 59 359
a 59 321
a 59 251
a 59 252
a 59 253
a 59 24
a 59 254
a 59 360
a 59 322
a 59 255
a 59 361
a 59 25
a 59 479
a 59 480
a 59 256
a 59 26
a 59 460
a 59 362
a 59 257
a 59 258
a 59 259
a 59 260
a 59 261
a 59 262
a 59 263
a 59 264
a 59 406
a 59 265
a 59 266
a 59 323
a 59 363
a 59 461
a 59 129
a 59 324
a 59 364
a 59 365
a 59 407
a 59 267
a 59 268
a 59 27
a 59 269
a 59 408
a 59 462
a 59 270
a 59 271
a 59 272
a 59 130
a 59 110
a 59 463
a 59 28
a 59 29
a 59 273
a 59 274
a 59 366
a 59 30
a 59 464
a 59 275
a 59 367
a 59 167
a 59 276
a 59 168
a 59 31
a 59 169
a 59 277
a 59 325
a 59 409
a 59 410
a 59 326
a 59 327
a 59 328
a 59 278
a 59 368
a 59 279
a 59 329
a 59 369
a 59 411
a 59 384
a 59 412
a 59 413
a 59 414
a 59 370
a 59 280
a 59 281
a 59 282
a 59 330
a 59 371
a 59 283
a 59 415
a 59 32
a 59 33
a 59 34
a 59 284
a 59 416
a 59 417
a 59 418
a 59 170
a 59 393
a 59 465
a 59 285
a 59 466
a 59 372
a 59 286
a 59 287
a 59 288
a 59 289
a 59 290
a 59 331
a 59 467
a 59 419
a 59 373
a 59 420
a 59 421
a 59 422
a 59 468
a 59 469
a 59 423
a 59 35
a 59 291
a 59 292
a 59 111
a 59 424
a 59 293
a 59 294
a 59 295
a 59 296
a 59 297
a 59 36
a 59 470
a 59 425
a 59 37
a 59 171
a 59 298
a 59 426
a 59 299
a 59 38
a 59 300
a 59 172
a 59 301
a 59 302
a 59 303
a 59 304
a 59 471
a 59 472
a 59 305
a 59 173
a 59 306
a 59 307
a 59 427
a 59 144
a 59 394
a 59 374
a 59 174
a 59 428
a 59 429
a 59 112
a 59 175
a 59 375
a 59 176
a 59 430
a 59 431
a 59 308
a 59 473
a 59 135
a 59 177
a 59 178
a 59 179
a 59 136
a 59 474
a 59 475
a 59 432
a 59 39
a 59 376
a 59 433
a 59 309
a 59 40
a 59 41
a 59 113
a 59 42
a 59 43
a 59 44
a 59 45
a 59 180
a 59 46
a 59 114
a 59 47
a 59 48
a 59 49
a 59 115
a 59 50
a 59 51
a 59 52
a 59 53
a 59 434
a 59 54
a 59 55
a 59 181
a 59 435
a 59 56
a 59 57
a 59 58
a 59 60
a 59 311
a 59 99
a 59 183
a 59 61
a 59 396
a 59 62
a 59 436
a 59 184
a 59 63
a 59 182
a 59 312
a 59 116
a 59 385
a 59 313
a 59 476
a 60 2
a 60 5
a 60 3
a 60 4
a 60 117
a 60 1
a 60 100
a 60 131
a 60 118
a 60 119
a 60 145
a 60 120
a 60 146
a 60 132
a 60 121
a 60 147
a 60 137
a 60 6
a 60 314
a 60 315
a 60 316
a 60 318
a 60 317
a 60 7
a 60 8
a 60 186
a 60 187
a 60 188
a 60 189
a 60 332
a 60 190
a 60 191
a 60 192
a 60 193
a 60 194
a 60 195
a 60 196
a 60 333
a 60 197
a 60 198
a 60 199
a 60 200
a 60 334
a 60 201
a 60 202
a 60 335
a 60 336
a 60 203
a 60 204
a 60 205
a 60 206
a 60 337
a 60 338
a 60 437
a 60 207
a 60 208
a 60 209
a 60 339
a 60 340
a 60 148
a 60 341
a 60 9
a 60 395
a 60 342
a 60 438
a 60 210
a 60 211
a 60 212
a 60 213
a 60 343
a 60 214
a 60 215
a 60 344
a 60 216
a 60 345
a 60 217
a 60 346
a 60 439
a 60 149
a 60 347
a 60 348
a 60 64
a 60 65
a 60 66
a 60 382
a 60 122
a 60 123
a 60 67
a 60 124
a 60 68
a 60 125
a 60 69
a 60 70
a 60 71
a 60 72
a 60 383
a 60 73
a 60 74
a 60 75
a 60 76
a 60 77
a 60 78
a 60 79
a 60 80
a 60 81
a 60 82
a 60 83
a 60 84
a 60 85
a 60 387
a 60 86
a 60 87
a 60 138
a 60 10
a 60 126
a 60 88
a 60 89
a 60 90
a 60 101
a 60 92
a 60 93
a 60 440
a 60 94
a 60 95
a 60 102
a 60 150
a 60 388
a 60 389
a 60 151
a 60 397
a 60 218
a 60 390
a 60 377
a 60 441
a 60 349
a 60 378
a 60 442
a 60 11
a 60 139
a 60 103
a 60 443
a 60 444
a 60 482
a 60 219
a 60 220
a 60 386
a 60 350
a 60 152
a 60 153
a 60 445
a 60 446
a 60 483
a 60 391
a 60 221
a 60 104
a 60 222
a 60 379
a 60 223
a 60 224
a 60 225
a 60 226
a 60 227
a 60 380
a 60 228
a 60 381
a 60 12
a 60 13
a 60 229
a 60 447
a 60 448
a 60 230
a 60 398
a 60 231
a 60 449
a 60 399
a 60 400
a 60 401
a 60 402
a 60 450
a 60 451
a 60 140
a 60 141
a 60 142
a 60 105
a 60 232
a 60 233
a 60 154
a 60 155
a 60 106
a 60 156
a 60 157
a 60 158
a 60 107
a 60 234
a 60 14
a 60 15
a 60 403
a 60 133
a 60 134
a 60 484
a 60 16
a 60 159
a 60 404
a 60 160
a 60 405
a 60 452
a 60 453
a 60 17
a 60 18
a 60 19
a 60 319
a 60 96
a 60 235
a 60 352
a 60 20
a 60 236
a 60 237
a 60 238
a 60 239
a 60 97
a 60 108
a 60 98
a 60 320
a 60 143
a 60 240
a 60 21
a 60 241
a 60 242
a 60 22
a 60 353
a 60 127
a 60 128
a 60 23
a 60 392
a 60 456
a 60 243
a 60 457
a 60 458
a 60 161
a 60 459
a 60 162
a 60 163
a 60 164
a 60 109
a 60 244
a 60 245
a 60 354
a 60 246
a 60 355
a 60 356
a 60 358
a 60 247
a 60 165
a 60 248
a 60 249
a 60 250
a 60 166
a 60 359
a 60 321
a 60 251
a 60 252
a 60 253
a 60 24
a 60 254
a 60 360
a 60 322
a 60 255
a 60 361
a 60 25
a 60 256
a 60 26
a 60 460
a 60 362
a 60 257
a 60 258
a 60 259
a 60 260
a 60 261
a 60 262
a 60 263
a 60 264
a 60 406
a 60 265
a 60 266
a 60 323
a 60 363
a 60 461
a 60 129
a 60 324
a 60 364
a 60 365
a 60 407
a 60 267
a 60 268
a 60 27
a 60 269
a 60 408
a 60 462
a 60 270
a 60 271
a 60 272
a 60 130
a 60 110
a 60 463
a 60 28
a 60 29
a 60 273
a 60 274
a 60 366
a 60 30
a 60 464
a 60 275
a 60 367
a 60 167
a 60 276
a 60 168
a 60 31
a 60 169
a 60 277
a 60 325
a 60 409
a 60 410
a 60 326
a 60 327
a 60 328
a 60 278
a 60 368
a 60 279
a 60 329
a 60 369
a 60 411
a 60 384
a 60 412
a 60 413
a 60 414
a 60 370
a 60 280
a 60 281
a 60 282
a 60 330
a 60 371
a 60 283
a 60 415
a 60 32
a 60 33
a 60 34
a 60 284
a 60 416
a 60 417
a 60 418
a 60 170
a 60 393
a 60 285
a 60 466
a 60 372
a 60 286
a 60 287
a 60 288
a 60 289
a 60 290
a 60 331
a 60 467
a 60 419
a 60 373
a 60 420
a 60 421
a 60 422
a 60 468
a 60 423
a 60 35
a 60 291
a 60 292
a 60 111
a 60 424
a 60 293
a 60 294
a 60 295
a 60 296
a 60 297
a 60 36
a 60 470
a 60 425
a 60 37
a 60 171
a 60 298
a 60 426
a 60 299
a 60 38
a 60 300
a 60 172
a 60 301
a 60 302
a 60 303
a 60 304
a 60 471
a 60 472
a 60 305
a 60 173
a 60 306
a 60 307
a 60 427
a 60 144
a 60 394
a 60 374
a 60 174
a 60 428
a 60 429
a 60 112
a 60 175
a 60 375
a 60 176
a 60 430
a 60 431
a 60 308
a 60 473
a 60 135
a 60 177
a 60 178
a 60 179
a 60 136
a 60 474
a 60 475
a 60 432
a 60 39
a 60 376
a 60 433
a 60 309
a 60 40
a 60 41
a 60 113
a 60 42
a 60 43
a 60 44
a 60 45
a 60 180
a 60 46
a 60 114
a 60 47
a 60 48
a 60 49
a 60 115
a 60 50
a 60 51
a 60 52
a 60 53
a 60 434
a 60 54
a 60 55
a 60 181
a 60 435
a 60 56
a 60 57
a 60 58
a 60 59
a 60 99
a 60 183
a 60 61
a 60 62
a 60 184
a 60 63
a 60 185
a 60 311
a 60 182
a 60 312
a 60 116
a 60 396
a 60 385
a 60 313
a 60 476
a 60 436
a 99 2
a 99 5
a 99 3
a 99 100
a 99 121
a 99 137
a 99 6
a 99 314
a 99 315
a 99 318
a 99 317
a 99 7
a 99 8
a 99 186
a 99 187
a 99 188
a 99 189
a 99 332
a 99 190
a 99 191
a 99 193
a 99 194
a 99 195
a 99 196
a 99 197
a 99 198
a 99 199
a 99 200
a 99 201
a 99 202
a 99 203
a 99 204
a 99 205
a 99 207
a 99 208
a 99 209
a 99 340
a 99 148
a 99 341
a 99 9
a 99 395
a 99 342
a 99 210
a 99 212
a 99 213
a 99 343
a 99 214
a 99 215
a 99 344
a 99 216
a 99 345
a 99 217
a 99 346
a 99 149
a 99 347
a 99 348
a 99 64
a 99 65
a 99 66
a 99 124
a 99 68
a 99 69
a 99 70
a 99 72
a 99 383
a 99 73
a 99 74
a 99 75
a 99 76
a 99 78
a 99 79
a 99 80
a 99 81
a 99 82
a 99 83
a 99 84
a 99 86
a 99 138
a 99 10
a 99 126
a 99 88
a 99 90
a 99 101
a 99 92
a 99 93
a 99 95
a 99 102
a 99 150
a 99 389
a 99 151
a 99 397
a 99 218
a 99 377
a 99 378
a 99 443
a 99 219
a 99 220
a 99 386
a 99 350
a 99 446
a 99 391
a 99 221
a 99 104
a 99 222
a 99 223
a 99 224
a 99 225
a 99 226
a 99 227
a 99 12
a 99 13
a 99 229
a 99 448
a 99 230
a 99 398
a 99 231
a 99 399
a 99 400
a 99 401
a 99 402
a 99 450
a 99 451
a 99 140
a 99 141
a 99 142
a 99 105
a 99 232
a 99 233
a 99 154
a 99 155
a 99 106
a 99 157
a 99 158
a 99 107
a 99 234
a 99 14
a 99 15
a 99 403
a 99 133
a 99 134
a 99 16
a 99 159
a 99 404
a 99 160
a 99 405
a 99 17
a 99 18
a 99 19
a 99 96
a 99 235
a 99 352
a 99 20
a 99 236
a 99 237
a 99 238
a 99 239
a 99 97
a 99 108
a 99 98
a 99 320
a 99 143
a 99 240
a 99 21
a 99 241
a 99 242
a 99 22
a 99 353
a 99 127
a 99 128
a 99 23
a 99 392
a 99 243
a 99 161
a 99 459
a 99 162
a 99 164
a 99 109
a 99 244
a 99 245
a 99 246
a 99 247
a 99 248
a 99 249
a 99 250
a 99 321
a 99 251
a 99 252
a 99 253
a 99 24
a 99 254
a 99 360
a 99 255
a 99 256
a 99 26
a 99 460
a 99 257
a 99 260
a 99 263
a 99 264
a 99 406
a 99 265
a 99 266
a 99 323
a 99 363
a 99 129
a 99 365
a 99 407
a 99 267
a 99 268
a 99 27
a 99 269
a 99 408
a 99 462
a 99 270
a 99 271
a 99 272
a 99 110
a 99 28
a 99 273
a 99 274
a 99 366
a 99 30
a 99 275
a 99 167
a 99 276
a 99 168
a 99 31
a 99 169
a 99 277
a 99 325
a 99 409
a 99 410
a 99 326
a 99 327
a 99 328
a 99 278
a 99 368
a 99 279
a 99 329
a 99 369
a 99 411
a 99 384
a 99 412
a 99 413
a 99 414
a 99 370
a 99 280
a 99 281
a 99 282
a 99 330
a 99 283
a 99 415
a 99 32
a 99 33
a 99 34
a 99 284
a 99 416
a 99 417
a 99 418
a 99 170
a 99 393
a 99 285
a 99 466
a 99 372
a 99 286
a 99 287
a 99 288
a 99 289
a 99 290
a 99 331
a 99 467
a 99 419
a 99 373
a 99 420
a 99 421
a 99 422
a 99 468
a 99 423
a 99 35
a 99 291
a 99 292
a 99 111
a 99 424
a 99 293
a 99 294
a 99 295
a 99 296
a 99 297
a 99 36
a 99 470
a 99 425
a 99 37
a 99 171
a 99 298
a 99 426
a 99 299
a 99 38
a 99 300
a 99 172
a 99 301
a 99 302
a 99 303
a 99 304
a 99 471
a 99 305
a 99 173
a 99 306
a 99 307
a 99 427
a 99 144
a 99 394
a 99 374
a 99 174
a 99 428
a 99 429
a 99 112
a 99 175
a 99 176
a 99 430
a 99 431
a 99 308
a 99 135
a 99 177
a 99 178
a 99 179
a 99 136
a 99 432
a 99 39
a 99 433
a 99 309
a 99 40
a 99 41
a 99 113
a 99 42
a 99 43
a 99 44
a 99 45
a 99 180
a 99 46
a 99 486
a 99 114
a 99 47
a 99 48
a 99 49
a 99 115
a 99 50
a 99 51
a 99 52
a 99 53
a 99 434
a 99 54
a 99 55
a 99 181
a 99 435
a 99 56
a 99 57
a 99 58
a 99 59
a 99 60
a 99 311
a 99 4
a 99 1
a 99 119
a 99 147
a 99 77
a 99 11
a 99 153
a 99 456
a 99 163
a 99 165
a 99 116
a 99 183
a 99 61
a 99 62
a 99 184
a 99 63
a 99 182
a 99 312
a 99 436
a 116 2
a 116 5
a 116 3
a 116 4
a 116 137
a 116 6
a 116 64
a 116 66
a 116 68
a 116 113
a 116 42
a 116 48
a 116 54
a 116 99
a 116 182
a 116 119
a 116 120
a 116 147
a 116 148
a 116 149
a 116 65
a 116 122
a 116 123
a 116 67
a 116 124
a 116 125
a 116 69
a 116 70
a 116 71
a 116 72
a 116 383
a 116 73
a 116 74
a 116 75
a 116 76
a 116 77
a 116 79
a 116 80
a 116 81
a 116 82
a 116 83
a 116 84
a 116 85
a 116 138
a 116 10
a 116 126
a 116 88
a 116 92
a 116 93
a 116 94
a 116 95
a 116 102
a 116 150
a 116 151
a 116 220
a 116 386
a 116 350
a 116 152
a 116 12
a 116 141
a 116 105
a 116 232
a 116 154
a 116 106
a 116 157
a 116 158
a 116 107
a 116 14
a 116 15
a 116 133
a 116 134
a 116 16
a 116 159
a 116 160
a 116 17
a 116 96
a 116 20
a 116 97
a 116 108
a 116 98
a 116 240
a 116 21
a 116 22
a 116 127
a 116 128
a 116 161
a 116 162
a 116 164
a 116 109
a 116 165
a 116 110
a 116 30
a 116 32
a 116 284
a 116 170
a 116 35
a 116 111
a 116 297
a 116 36
a 116 37
a 116 38
a 116 173
a 116 144
a 116 394
a 116 374
a 116 174
a 116 112
a 116 175
a 116 375
a 116 176
a 116 135
a 116 177
a 116 178
a 116 179
a 116 136
a 116 474
a 116 39
a 116 309
a 116 40
a 116 41
a 116 43
a 116 44
a 116 45
a 116 180
a 116 46
a 116 114
a 116 47
a 116 49
a 116 115
a 116 50
a 116 51
a 116 52
a 116 53
a 116 55
a 116 181
a 116 56
a 116 57
a 116 58
a 116 59
a 116 60
a 116 183
a 116 61
a 116 62
a 116 184
a 116 63
a 61 2
a 61 5
a 61 3
a 61 4
a 61 117
a 61 1
a 61 100
a 61 131
a 61 118
a 61 119
a 61 145
a 61 120
a 61 146
a 61 132
a 61 121
a 61 147
a 61 137
a 61 6
a 61 314
a 61 315
a 61 316
a 61 318
a 61 317
a 61 7
a 61 8
a 61 186
a 61 187
a 61 188
a 61 189
a 61 332
a 61 190
a 61 191
a 61 193
a 61 194
a 61 195
a 61 196
a 61 333
a 61 197
a 61 198
a 61 199
a 61 200
a 61 201
a 61 202
a 61 336
a 61 203
a 61 204
a 61 205
a 61 206
a 61 337
a 61 338
a 61 437
a 61 207
a 61 208
a 61 209
a 61 339
a 61 340
a 61 148
a 61 341
a 61 9
a 61 395
a 61 342
a 61 438
a 61 210
a 61 212
a 61 213
a 61 343
a 61 214
a 61 215
a 61 344
a 61 216
a 61 345
a 61 217
a 61 346
a 61 439
a 61 149
a 61 347
a 61 348
a 61 64
a 61 65
a 61 66
a 61 382
a 61 122
a 61 123
a 61 67
a 61 124
a 61 68
a 61 125
a 61 69
a 61 70
a 61 71
a 61 72
a 61 383
a 61 73
a 61 74
a 61 75
a 61 76
a 61 77
a 61 78
a 61 79
a 61 80
a 61 81
a 61 82
a 61 83
a 61 84
a 61 85
a 61 387
a 61 86
a 61 87
a 61 138
a 61 10
a 61 126
a 61 88
a 61 89
a 61 90
a 61 101
a 61 92
a 61 93
a 61 440
a 61 94
a 61 95
a 61 102
a 61 150
a 61 388
a 61 389
a 61 151
a 61 397
a 61 218
a 61 390
a 61 377
a 61 441
a 61 478
a 61 349
a 61 477
a 61 378
a 61 442
a 61 11
a 61 139
a 61 103
a 61 443
a 61 444
a 61 482
a 61 219
a 61 220
a 61 386
a 61 350
a 61 152
a 61 153
a 61 445
a 61 446
a 61 483
a 61 391
a 61 221
a 61 104
a 61 222
a 61 379
a 61 223
a 61 224
a 61 225
a 61 226
a 61 227
a 61 380
a 61 228
a 61 381
a 61 12
a 61 13
a 61 229
a 61 447
a 61 448
a 61 230
a 61 398
a 61 231
a 61 449
a 61 399
a 61 400
a 61 401
a 61 402
a 61 450
a 61 451
a 61 140
a 61 141
a 61 142
a 61 105
a 61 232
a 61 233
a 61 154
a 61 155
a 61 106
a 61 156
a 61 157
a 61 158
a 61 107
a 61 234
a 61 14
a 61 15
a 61 403
a 61 133
a 61 134
a 61 484
a 61 16
a 61 159
a 61 404
a 61 160
a 61 405
a 61 452
a 61 453
a 61 454
a 61 17
a 61 18
a 61 19
a 61 319
a 61 96
a 61 235
a 61 352
a 61 455
a 61 20
a 61 236
a 61 237
a 61 238
a 61 239
a 61 97
a 61 108
a 61 98
a 61 320
a 61 143
a 61 240
a 61 21
a 61 241
a 61 242
a 61 22
a 61 353
a 61 127
a 61 128
a 61 23
a 61 392
a 61 456
a 61 243
a 61 457
a 61 458
a 61 161
a 61 459
a 61 162
a 61 163
a 61 164
a 61 109
a 61 244
a 61 245
a 61 354
a 61 246
a 61 355
a 61 356
a 61 357
a 61 358
a 61 247
a 61 165
a 61 248
a 61 249
a 61 250
a 61 166
a 61 359
a 61 321
a 61 251
a 61 252
a 61 253
a 61 24
a 61 254
a 61 360
a 61 322
a 61 255
a 61 361
a 61 25
a 61 256
a 61 26
a 61 460
a 61 362
a 61 257
a 61 258
a 61 259
a 61 260
a 61 261
a 61 263
a 61 264
a 61 406
a 61 265
a 61 266
a 61 323
a 61 363
a 61 461
a 61 129
a 61 324
a 61 364
a 61 365
a 61 407
a 61 267
a 61 268
a 61 27
a 61 269
a 61 408
a 61 462
a 61 270
a 61 271
a 61 272
a 61 130
a 61 110
a 61 463
a 61 28
a 61 29
a 61 273
a 61 274
a 61 366
a 61 30
a 61 464
a 61 275
a 61 367
a 61 167
a 61 276
a 61 168
a 61 31
a 61 169
a 61 277
a 61 325
a 61 409
a 61 410
a 61 326
a 61 327
a 61 328
a 61 278
a 61 368
a 61 279
a 61 329
a 61 369
a 61 411
a 61 384
a 61 412
a 61 413
a 61 414
a 61 370
a 61 280
a 61 281
a 61 282
a 61 330
a 61 371
a 61 283
a 61 415
a 61 32
a 61 33
a 61 34
a 61 284
a 61 416
a 61 417
a 61 418
a 61 170
a 61 393
a 61 465
a 61 285
a 61 466
a 61 372
a 61 286
a 61 287
a 61 288
a 61 289
a 61 290
a 61 331
a 61 467
a 61 419
a 61 373
a 61 420
a 61 421
a 61 422
a 61 468
a 61 469
a 61 423
a 61 35
a 61 291
a 61 292
a 61 111
a 61 424
a 61 293
a 61 294
a 61 295
a 61 296
a 61 297
a 61 36
a 61 470
a 61 425
a 61 37
a 61 171
a 61 298
a 61 426
a 61 299
a 61 38
a 61 300
a 61 172
a 61 301
a 61 302
a 61 303
a 61 304
a 61 471
a 61 472
a 61 305
a 61 173
a 61 306
a 61 307
a 61 427
a 61 144
a 61 394
a 61 374
a 61 174
a 61 428
a 61 429
a 61 112
a 61 175
a 61 375
a 61 176
a 61 430
a 61 431
a 61 308
a 61 473
a 61 135
a 61 177
a 61 178
a 61 179
a 61 136
a 61 474
a 61 475
a 61 432
a 61 39
a 61 376
a 61 433
a 61 309
a 61 40
a 61 41
a 61 113
a 61 42
a 61 43
a 61 44
a 61 45
a 61 180
a 61 46
a 61 114
a 61 47
a 61 48
a 61 49
a 61 115
a 61 50
a 61 51
a 61 52
a 61 53
a 61 434
a 61 54
a 61 55
a 61 181
a 61 435
a 61 56
a 61 57
a 61 58
a 61 59
a 61 60
a 61 311
a 61 99
a 61 182
a 61 312
a 61 116
a 61 183
a 61 62
a 61 184
a 61 63
a 61 396
a 61 385
a 61 313
a 61 476
a 62 2
a 62 5
a 62 3
a 62 4
a 62 117
a 62 1
a 62 100
a 62 118
a 62 119
a 62 120
a 62 146
a 62 121
a 62 147
a 62 137
a 62 6
a 62 314
a 62 315
a 62 316
a 62 318
a 62 317
a 62 7
a 62 8
a 62 186
a 62 187
a 62 188
a 62 189
a 62 332
a 62 190
a 62 191
a 62 193
a 62 194
a 62 195
a 62 196
a 62 333
a 62 197
a 62 198
a 62 199
a 62 200
a 62 201
a 62 202
a 62 336
a 62 203
a 62 204
a 62 205
a 62 206
a 62 337
a 62 338
a 62 437
a 62 207
a 62 208
a 62 209
a 62 340
a 62 148
a 62 341
a 62 9
a 62 395
a 62 342
a 62 438
a 62 210
a 62 212
a 62 213
a 62 343
a 62 214
a 62 215
a 62 344
a 62 216
a 62 345
a 62 217
a 62 346
a 62 439
a 62 149
a 62 347
a 62 348
a 62 64
a 62 65
a 62 66
a 62 382
a 62 122
a 62 123
a 62 67
a 62 124
a 62 68
a 62 125
a 62 69
a 62 70
a 62 71
a 62 72
a 62 383
a 62 73
a 62 74
a 62 75
a 62 76
a 62 77
a 62 78
a 62 79
a 62 80
a 62 81
a 62 82
a 62 83
a 62 84
a 62 85
a 62 387
a 62 86
a 62 138
a 62 10
a 62 126
a 62 88
a 62 89
a 62 90
a 62 101
a 62 92
a 62 93
a 62 440
a 62 94
a 62 95
a 62 102
a 62 150
a 62 388
a 62 389
a 62 151
a 62 397
a 62 218
a 62 390
a 62 377
a 62 441
a 62 478
a 62 349
a 62 477
a 62 378
a 62 442
a 62 11
a 62 139
a 62 103
a 62 443
a 62 444
a 62 482
a 62 219
a 62 220
a 62 386
a 62 350
a 62 152
a 62 153
a 62 445
a 62 446
a 62 483
a 62 391
a 62 221
a 62 104
a 62 222
a 62 379
a 62 223
a 62 224
a 62 225
a 62 226
a 62 227
a 62 380
a 62 228
a 62 381
a 62 12
a 62 13
a 62 229
a 62 448
a 62 230
a 62 398
a 62 231
a 62 449
a 62 399
a 62 400
a 62 401
a 62 402
a 62 450
a 62 451
a 62 140
a 62 141
a 62 142
a 62 105
a 62 232
a 62 233
a 62 154
a 62 155
a 62 106
a 62 156
a 62 157
a 62 158
a 62 107
a 62 234
a 62 14
a 62 15
a 62 403
a 62 133
a 62 134
a 62 484
a 62 16
a 62 159
a 62 404
a 62 160
a 62 405
a 62 452
a 62 453
a 62 454
a 62 17
a 62 18
a 62 19
a 62 319
a 62 96
a 62 235
a 62 352
a 62 455
a 62 20
a 62 236
a 62 237
a 62 238
a 62 239
a 62 97
a 62 108
a 62 98
a 62 320
a 62 143
a 62 240
a 62 21
a 62 241
a 62 242
a 62 22
a 62 353
a 62 127
a 62 128
a 62 23
a 62 392
a 62 456
a 62 243
a 62 457
a 62 458
a 62 161
a 62 459
a 62 162
a 62 163
a 62 164
a 62 109
a 62 244
a 62 245
a 62 354
a 62 246
a 62 355
a 62 356
a 62 357
a 62 358
a 62 247
a 62 165
a 62 248
a 62 249
a 62 250
a 62 166
a 62 359
a 62 321
a 62 251
a 62 252
a 62 253
a 62 24
a 62 254
a 62 360
a 62 322
a 62 255
a 62 361
a 62 25
a 62 256
a 62 26
a 62 460
a 62 362
a 62 257
a 62 258
a 62 259
a 62 260
a 62 261
a 62 262
a 62 263
a 62 264
a 62 406
a 62 265
a 62 266
a 62 323
a 62 363
a 62 461
a 62 129
a 62 324
a 62 364
a 62 365
a 62 407
a 62 267
a 62 268
a 62 27
a 62 269
a 62 408
a 62 462
a 62 270
a 62 271
a 62 272
a 62 130
a 62 110
a 62 463
a 62 28
a 62 29
a 62 273
a 62 274
a 62 366
a 62 30
a 62 464
a 62 275
a 62 367
a 62 167
a 62 276
a 62 168
a 62 31
a 62 169
a 62 277
a 62 325
a 62 409
a 62 410
a 62 326
a 62 327
a 62 328
a 62 278
a 62 368
a 62 279
a 62 329
a 62 369
a 62 411
a 62 384
a 62 412
a 62 413
a 62 414
a 62 370
a 62 280
a 62 281
a 62 282
a 62 330
a 62 371
a 62 283
a 62 415
a 62 32
a 62 33
a 62 34
a 62 284
a 62 416
a 62 417
a 62 418
a 62 170
a 62 393
a 62 465
a 62 285
a 62 466
a 62 372
a 62 286
a 62 287
a 62 288
a 62 289
a 62 290
a 62 331
a 62 467
a 62 419
a 62 373
a 62 420
a 62 421
a 62 422
a 62 468
a 62 469
a 62 423
a 62 35
a 62 291
a 62 292
a 62 111
a 62 424
a 62 293
a 62 294
a 62 295
a 62 296
a 62 297
a 62 36
a 62 470
a 62 425
a 62 37
a 62 171
a 62 298
a 62 426
a 62 299
a 62 38
a 62 300
a 62 172
a 62 301
a 62 302
a 62 303
a 62 304
a 62 471
a 62 472
a 62 305
a 62 173
a 62 306
a 62 307
a 62 427
a 62 144
a 62 394
a 62 374
a 62 174
a 62 428
a 62 429
a 62 112
a 62 175
a 62 375
a 62 176
a 62 430
a 62 431
a 62 308
a 62 473
a 62 135
a 62 177
a 62 178
a 62 179
a 62 136
a 62 474
a 62 475
a 62 432
a 62 39
a 62 376
a 62 433
a 62 309
a 62 40
a 62 41
a 62 113
a 62 42
a 62 43
a 62 44
a 62 45
a 62 180
a 62 46
a 62 114
a 62 47
a 62 48
a 62 49
a 62 115
a 62 50
a 62 51
a 62 52
a 62 53
a 62 434
a 62 54
a 62 55
a 62 181
a 62 435
a 62 56
a 62 57
a 62 58
a 62 59
a 62 60
a 62 311
a 62 99
a 62 182
a 62 312
a 62 116
a 62 183
a 62 61
a 62 396
a 62 313
a 62 476
a 62 184
a 62 63
a 62 436
a 63 2
a 63 5
a 63 3
a 63 4
a 63 117
a 63 1
a 63 100
a 63 118
a 63 119
a 63 120
a 63 146
a 63 121
a 63 147
a 63 137
a 63 6
a 63 314
a 63 315
a 63 316
a 63 318
a 63 317
a 63 7
a 63 8
a 63 186
a 63 187
a 63 188
a 63 189
a 63 332
a 63 190
a 63 191
a 63 193
a 63 194
a 63 195
a 63 196
a 63 333
a 63 197
a 63 198
a 63 199
a 63 200
a 63 201
a 63 202
a 63 336
a 63 203
a 63 204
a 63 205
a 63 206
a 63 337
a 63 338
a 63 437
a 63 207
a 63 208
a 63 209
a 63 340
a 63 148
a 63 341
a 63 9
a 63 395
a 63 342
a 63 438
a 63 210
a 63 211
a 63 212
a 63 213
a 63 343
a 63 214
a 63 215
a 63 344
a 63 216
a 63 345
a 63 217
a 63 346
a 63 439
a 63 149
a 63 347
a 63 348
a 63 64
a 63 65
a 63 66
a 63 382
a 63 122
a 63 123
a 63 67
a 63 124
a 63 68
a 63 125
a 63 69
a 63 70
a 63 71
a 63 72
a 63 383
a 63 73
a 63 74
a 63 75
a 63 76
a 63 77
a 63 78
a 63 79
a 63 80
a 63 81
a 63 82
a 63 83
a 63 84
a 63 85
a 63 387
a 63 86
a 63 87
a 63 138
a 63 10
a 63 126
a 63 88
a 63 89
a 63 90
a 63 91
a 63 101
a 63 92
a 63 93
a 63 440
a 63 94
a 63 95
a 63 102
a 63 150
a 63 388
a 63 389
a 63 151
a 63 397
a 63 218
a 63 390
a 63 377
a 63 441
a 63 478
a 63 349
a 63 477
a 63 378
a 63 442
a 63 11
a 63 139
a 63 103
a 63 443
a 63 444
a 63 219
a 63 220
a 63 386
a 63 350
a 63 152
a 63 153
a 63 445
a 63 446
a 63 483
a 63 391
a 63 221
a 63 104
a 63 222
a 63 379
a 63 223
a 63 224
a 63 225
a 63 226
a 63 227
a 63 380
a 63 228
a 63 381
a 63 12
a 63 13
a 63 229
a 63 447
a 63 448
a 63 230
a 63 398
a 63 231
a 63 449
a 63 399
a 63 400
a 63 401
a 63 402
a 63 450
a 63 451
a 63 140
a 63 141
a 63 142
a 63 105
a 63 232
a 63 233
a 63 154
a 63 155
a 63 106
a 63 156
a 63 157
a 63 158
a 63 107
a 63 234
a 63 14
a 63 15
a 63 403
a 63 133
a 63 134
a 63 484
a 63 16
a 63 159
a 63 404
a 63 160
a 63 405
a 63 452
a 63 453
a 63 454
a 63 17
a 63 18
a 63 19
a 63 319
a 63 96
a 63 235
a 63 352
a 63 455
a 63 20
a 63 236
a 63 237
a 63 238
a 63 239
a 63 97
a 63 108
a 63 98
a 63 320
a 63 143
a 63 240
a 63 21
a 63 241
a 63 242
a 63 22
a 63 353
a 63 485
a 63 127
a 63 128
a 63 23
a 63 392
a 63 456
a 63 243
a 63 457
a 63 458
a 63 161
a 63 459
a 63 162
a 63 163
a 63 164
a 63 109
a 63 244
a 63 245
a 63 354
a 63 246
a 63 355
a 63 356
a 63 357
a 63 358
a 63 247
a 63 165
a 63 248
a 63 249
a 63 250
a 63 166
a 63 359
a 63 321
a 63 251
a 63 252
a 63 253
a 63 24
a 63 254
a 63 360
a 63 322
a 63 255
a 63 361
a 63 25
a 63 256
a 63 26
a 63 460
a 63 362
a 63 257
a 63 258
a 63 259
a 63 260
a 63 261
a 63 263
a 63 264
a 63 406
a 63 265
a 63 266
a 63 323
a 63 363
a 63 461
a 63 129
a 63 324
a 63 364
a 63 365
a 63 407
a 63 267
a 63 268
a 63 27
a 63 269
a 63 408
a 63 462
a 63 270
a 63 271
a 63 272
a 63 130
a 63 110
a 63 463
a 63 28
a 63 29
a 63 273
a 63 274
a 63 366
a 63 30
a 63 464
a 63 275
a 63 367
a 63 167
a 63 276
a 63 168
a 63 31
a 63 169
a 63 277
a 63 325
a 63 409
a 63 410
a 63 326
a 63 327
a 63 328
a 63 278
a 63 368
a 63 279
a 63 329
a 63 369
a 63 411
a 63 384
a 63 412
a 63 413
a 63 414
a 63 370
a 63 280
a 63 281
a 63 282
a 63 330
a 63 371
a 63 283
a 63 415
a 63 32
a 63 33
a 63 34
a 63 284
a 63 416
a 63 417
a 63 418
a 63 170
a 63 393
a 63 465
a 63 285
a 63 466
a 63 372
a 63 286
a 63 287
a 63 288
a 63 289
a 63 290
a 63 331
a 63 467
a 63 419
a 63 373
a 63 420
a 63 421
a 63 422
a 63 468
a 63 469
a 63 423
a 63 35
a 63 291
a 63 292
a 63 111
a 63 424
a 63 293
a 63 294
a 63 295
a 63 296
a 63 297
a 63 36
a 63 470
a 63 425
a 63 37
a 63 171
a 63 298
a 63 426
a 63 299
a 63 38
a 63 300
a 63 172
a 63 301
a 63 302
a 63 303
a 63 304
a 63 471
a 63 472
a 63 305
a 63 173
a 63 306
a 63 307
a 63 427
a 63 144
a 63 394
a 63 374
a 63 174
a 63 428
a 63 429
a 63 112
a 63 175
a 63 375
a 63 176
a 63 430
a 63 431
a 63 308
a 63 473
a 63 135
a 63 177
a 63 178
a 63 179
a 63 136
a 63 474
a 63 475
a 63 432
a 63 39
a 63 376
a 63 433
a 63 309
a 63 40
a 63 41
a 63 113
a 63 42
a 63 43
a 63 44
a 63 45
a 63 180
a 63 46
a 63 114
a 63 47
a 63 48
a 63 49
a 63 115
a 63 50
a 63 51
a 63 52
a 63 53
a 63 434
a 63 54
a 63 55
a 63 181
a 63 435
a 63 56
a 63 57
a 63 58
a 63 59
a 63 60
a 63 311
a 63 99
a 63 182
a 63 312
a 63 116
a 63 183
a 63 61
a 63 396
a 63 385
a 63 313
a 63 476
a 63 62
a 63 436
a 63 184
a 5 100
a 5 6
a 5 9
a 5 78
a 5 10
a 5 89
a 5 90
a 5 91
a 5 101
a 5 102
a 5 11
a 5 12
a 5 13
a 5 106
a 5 156
a 5 14
a 5 15
a 5 16
a 5 17
a 5 19
a 5 20
a 5 97
a 5 108
a 5 21
a 5 22
a 5 25
a 5 26
a 5 27
a 5 28
a 5 29
a 5 30
a 5 31
a 5 32
a 5 33
a 5 34
a 5 35
a 5 36
a 5 37
a 5 38
a 5 39
a 5 40
a 5 41
a 5 42
a 5 43
a 5 44
a 5 45
a 5 46
a 5 114
a 5 47
a 5 48
a 5 49
a 5 115
a 5 50
a 5 51
a 5 52
a 5 53
a 5 54
a 5 55
a 5 56
a 5 57
a 5 58
a 5 59
a 5 60
a 5 99
a 5 116
a 5 61
a 5 62
a 5 63
a 5 117
a 5 1
a 5 118
a 5 119
a 5 120
a 5 121
a 5 147
a 5 64
a 5 65
a 5 66
a 5 382
a 5 122
a 5 67
a 5 68
a 5 69
a 5 70
a 5 73
a 5 74
a 5 77
a 5 126
a 5 95
a 5 182
a 5 312
a 5 385
a 5 313
a 156 5
a 156 6
a 156 186
a 156 187
a 156 188
a 156 332
a 156 200
a 156 201
a 156 207
a 156 208
a 156 340
a 156 148
a 156 438
a 156 214
a 156 66
a 156 318
a 156 10
a 156 140
a 156 141
a 156 142
a 156 154
a 156 107
a 156 16
a 156 17
a 156 96
a 156 236
a 156 21
a 156 128
a 156 253
a 156 25
a 156 279
a 156 414
a 156 32
a 156 34
a 156 41
a 156 113
a 156 42
a 156 43
a 156 44
a 156 46
a 156 114
a 156 47
a 156 48
a 156 49
a 156 50
a 156 51
a 156 52
a 156 54
a 156 55
a 156 181
a 156 56
a 156 57
a 156 58
a 156 59
a 156 60
a 156 61
a 156 62
a 156 184
a 156 63
a 156 185
a 156 255
a 156 256
a 156 26
a 156 30
a 156 115
a 156 436
a 47 5
a 47 4
a 47 117
a 47 1
a 47 100
a 47 131
a 47 119
a 47 145
a 47 120
a 47 146
a 47 132
a 47 121
a 47 147
a 47 137
a 47 6
a 47 314
a 47 315
a 47 316
a 47 318
a 47 317
a 47 7
a 47 8
a 47 186
a 47 187
a 47 188
a 47 189
a 47 332
a 47 190
a 47 193
a 47 194
a 47 196
a 47 197
a 47 198
a 47 199
a 47 200
a 47 201
a 47 202
a 47 203
a 47 205
a 47 340
a 47 148
a 47 395
a 47 342
a 47 212
a 47 213
a 47 214
a 47 344
a 47 216
a 47 217
a 47 346
a 47 439
a 47 149
a 47 347
a 47 348
a 47 64
a 47 65
a 47 66
a 47 382
a 47 122
a 47 123
a 47 67
a 47 124
a 47 68
a 47 125
a 47 69
a 47 70
a 47 71
a 47 72
a 47 383
a 47 73
a 47 74
a 47 75
a 47 76
a 47 77
a 47 78
a 47 79
a 47 80
a 47 81
a 47 82
a 47 83
a 47 84
a 47 85
a 47 387
a 47 86
a 47 87
a 47 138
a 47 10
a 47 126
a 47 88
a 47 89
a 47 90
a 47 91
a 47 101
a 47 92
a 47 93
a 47 440
a 47 94
a 47 95
a 47 102
a 47 150
a 47 388
a 47 389
a 47 151
a 47 397
a 47 218
a 47 390
a 47 377
a 47 441
a 47 478
a 47 349
a 47 477
a 47 378
a 47 442
a 47 11
a 47 139
a 47 103
a 47 443
a 47 444
a 47 482
a 47 219
a 47 220
a 47 386
a 47 350
a 47 152
a 47 153
a 47 445
a 47 446
a 47 391
a 47 221
a 47 104
a 47 222
a 47 223
a 47 224
a 47 225
a 47 226
a 47 227
a 47 380
a 47 228
a 47 381
a 47 12
a 47 13
a 47 229
a 47 447
a 47 448
a 47 230
a 47 398
a 47 231
a 47 449
a 47 399
a 47 400
a 47 401
a 47 402
a 47 450
a 47 451
a 47 140
a 47 141
a 47 142
a 47 105
a 47 232
a 47 233
a 47 154
a 47 155
a 47 106
a 47 156
a 47 157
a 47 158
a 47 107
a 47 234
a 47 14
a 47 15
a 47 403
a 47 133
a 47 134
a 47 484
a 47 16
a 47 159
a 47 404
a 47 160
a 47 405
a 47 452
a 47 453
a 47 17
a 47 18
a 47 19
a 47 319
a 47 96
a 47 235
a 47 352
a 47 455
a 47 20
a 47 236
a 47 237
a 47 238
a 47 239
a 47 97
a 47 108
a 47 98
a 47 320
a 47 143
a 47 240
a 47 21
a 47 241
a 47 242
a 47 22
a 47 353
a 47 485
a 47 127
a 47 128
a 47 23
a 47 392
a 47 456
a 47 243
a 47 457
a 47 458
a 47 161
a 47 459
a 47 163
a 47 164
a 47 109
a 47 244
a 47 245
a 47 354
a 47 246
a 47 355
a 47 356
a 47 357
a 47 358
a 47 247
a 47 165
a 47 248
a 47 249
a 47 250
a 47 166
a 47 359
a 47 321
a 47 251
a 47 252
a 47 253
a 47 24
a 47 254
a 47 360
a 47 322
a 47 255
a 47 361
a 47 25
a 47 479
a 47 480
a 47 256
a 47 26
a 47 460
a 47 362
a 47 257
a 47 258
a 47 259
a 47 260
a 47 261
a 47 262
a 47 263
a 47 264
a 47 406
a 47 265
a 47 266
a 47 323
a 47 363
a 47 461
a 47 129
a 47 324
a 47 364
a 47 365
a 47 407
a 47 267
a 47 268
a 47 27
a 47 269
a 47 408
a 47 462
a 47 270
a 47 271
a 47 272
a 47 130
a 47 110
a 47 463
a 47 28
a 47 29
a 47 273
a 47 274
a 47 366
a 47 30
a 47 464
a 47 275
a 47 367
a 47 167
a 47 276
a 47 168
a 47 31
a 47 169
a 47 277
a 47 325
a 47 409
a 47 410
a 47 326
a 47 327
a 47 328
a 47 278
a 47 368
a 47 279
a 47 329
a 47 369
a 47 411
a 47 384
a 47 412
a 47 413
a 47 414
a 47 370
a 47 280
a 47 281
a 47 282
a 47 330
a 47 371
a 47 283
a 47 415
a 47 32
a 47 33
a 47 34
a 47 284
a 47 416
a 47 417
a 47 418
a 47 170
a 47 393
a 47 465
a 47 285
a 47 466
a 47 372
a 47 286
a 47 287
a 47 288
a 47 289
a 47 290
a 47 331
a 47 467
a 47 419
a 47 373
a 47 420
a 47 421
a 47 422
a 47 468
a 47 469
a 47 423
a 47 35
a 47 291
a 47 292
a 47 111
a 47 424
a 47 293
a 47 294
a 47 295
a 47 296
a 47 297
a 47 36
a 47 470
a 47 425
a 47 37
a 47 171
a 47 298
a 47 426
a 47 299
a 47 38
a 47 300
a 47 172
a 47 301
a 47 302
a 47 303
a 47 304
a 47 471
a 47 472
a 47 305
a 47 173
a 47 306
a 47 307
a 47 427
a 47 144
a 47 394
a 47 374
a 47 174
a 47 428
a 47 429
a 47 112
a 47 175
a 47 375
a 47 176
a 47 430
a 47 431
a 47 308
a 47 473
a 47 135
a 47 177
a 47 178
a 47 179
a 47 136
a 47 432
a 47 39
a 47 376
a 47 433
a 47 309
a 47 40
a 47 41
a 47 113
a 47 42
a 47 43
a 47 44
a 47 45
a 47 180
a 47 46
a 47 114
a 47 210
a 47 345
a 47 162
a 47 48
a 47 49
a 47 115
a 47 50
a 47 51
a 47 52
a 47 53
a 47 54
a 47 55
a 47 181
a 47 56
a 47 57
a 47 58
a 47 59
a 47 60
a 47 99
a 47 182
a 47 61
a 47 62
a 47 184
a 47 63
a 47 185
a 47 434
a 47 435
a 47 311
a 47 312
a 47 116
a 47 183
a 47 396
a 47 385
a 47 313
a 47 476
a 47 436
a 3 2
a 3 4
a 3 1
a 3 100
a 3 119
a 3 120
a 3 121
a 3 6
a 3 9
a 3 64
a 3 65
a 3 66
a 3 74
a 3 78
a 3 79
a 3 80
a 3 83
a 3 84
a 3 86
a 3 138
a 3 10
a 3 89
a 3 90
a 3 91
a 3 101
a 3 102
a 3 11
a 3 12
a 3 13
a 3 105
a 3 155
a 3 106
a 3 158
a 3 14
a 3 15
a 3 133
a 3 134
a 3 16
a 3 159
a 3 17
a 3 19
a 3 20
a 3 97
a 3 21
a 3 22
a 3 23
a 3 164
a 3 25
a 3 26
a 3 27
a 3 28
a 3 29
a 3 30
a 3 31
a 3 32
a 3 33
a 3 34
a 3 35
a 3 111
a 3 36
a 3 37
a 3 38
a 3 174
a 3 112
a 3 175
a 3 176
a 3 135
a 3 177
a 3 179
a 3 136
a 3 39
a 3 40
a 3 41
a 3 113
a 3 42
a 3 43
a 3 44
a 3 45
a 3 46
a 3 114
a 3 48
a 3 49
a 3 115
a 3 50
a 3 51
a 3 52
a 3 53
a 3 54
a 3 55
a 3 56
a 3 57
a 3 58
a 3 59
a 3 60
a 3 99
a 3 116
a 3 61
a 3 62
a 3 63
a 3 117
a 3 118
a 3 382
a 3 67
a 3 124
a 3 68
a 3 69
a 3 73
a 3 77
a 3 93
a 3 95
a 3 151
a 3 218
a 3 390
a 3 377
a 3 441
a 3 349
a 3 378
a 3 139
a 3 103
a 3 219
a 3 350
a 3 391
a 3 239
a 3 128
a 4 3
a 4 1
a 4 100
a 4 6
a 4 9
a 4 74
a 4 77
a 4 78
a 4 79
a 4 80
a 4 83
a 4 86
a 4 10
a 4 89
a 4 90
a 4 91
a 4 14
a 4 15
a 4 17
a 4 19
a 4 20
a 4 97
a 4 21
a 4 22
a 4 163
a 4 25
a 4 27
a 4 28
a 4 30
a 4 31
a 4 32
a 4 36
a 4 38
a 4 41
a 4 42
a 4 43
a 4 44
a 4 45
a 4 46
a 4 114
a 4 47
a 4 48
a 4 49
a 4 115
a 4 50
a 4 51
a 4 53
a 4 54
a 4 56
a 4 57
a 4 58
a 4 59
a 4 60
a 4 116
a 4 61
a 4 62
a 4 63
a 4 117
a 4 131
a 4 118
a 4 119
a 4 145
a 4 120
a 4 146
a 4 132
a 4 121
a 4 147
a 4 137
a 4 64
a 4 65
a 4 66
a 4 123
a 4 67
a 4 125
a 4 69
a 4 70
a 4 71
a 4 72
a 4 383
a 4 73
a 4 75
a 4 76
a 4 82
a 4 84
a 4 85
a 4 88
a 4 92
a 4 93
a 4 94
a 4 95
a 4 221
a 4 108
a 4 98
a 4 143
a 4 99
a 4 183
a 119 3
a 119 2
a 119 5
a 119 4
a 119 147
a 119 6
a 119 7
a 119 8
a 119 9
a 119 10
a 119 11
a 119 152
a 119 153
a 119 12
a 119 13
a 119 105
a 119 155
a 119 107
a 119 14
a 119 15
a 119 16
a 119 17
a 119 18
a 119 19
a 119 20
a 119 21
a 119 22
a 119 24
a 119 26
a 119 27
a 119 28
a 119 30
a 119 31
a 119 32
a 119 33
a 119 34
a 119 35
a 119 36
a 119 37
a 119 38
a 119 39
a 119 40
a 119 41
a 119 42
a 119 43
a 119 44
a 119 45
a 119 46
a 119 47
a 119 48
a 119 49
a 119 115
a 119 50
a 119 51
a 119 53
a 119 54
a 119 56
a 119 57
a 119 58
a 119 59
a 119 60
a 119 61
a 119 62
a 119 63
a 119 317
a 119 186
a 119 188
a 119 189
a 119 332
a 119 190
a 119 193
a 119 194
a 119 196
a 119 197
a 119 198
a 119 199
a 119 201
a 119 205
a 119 340
a 119 148
a 119 342
a 119 344
a 119 217
a 119 346
a 119 348
a 119 64
a 119 65
a 119 66
a 119 382
a 119 123
a 119 67
a 119 68
a 119 125
a 119 69
a 119 70
a 119 71
a 119 72
a 119 383
a 119 73
a 119 74
a 119 75
a 119 76
a 119 77
a 119 78
a 119 81
a 119 82
a 119 84
a 119 85
a 119 138
a 119 126
a 119 88
a 119 91
a 119 92
a 119 93
a 119 94
a 119 95
a 119 151
a 119 218
a 119 220
a 119 221
a 119 104
a 119 229
a 119 230
a 119 141
a 119 142
a 119 234
a 119 133
a 119 134
a 119 404
a 119 236
a 119 239
a 119 97
a 119 108
a 119 98
a 119 143
a 119 240
a 119 127
a 119 128
a 119 23
a 119 109
a 119 249
a 119 250
a 119 255
a 119 256
a 119 265
a 119 266
a 119 129
a 119 267
a 119 268
a 119 269
a 119 271
a 119 272
a 119 110
a 119 273
a 119 275
a 119 167
a 119 276
a 119 168
a 119 277
a 119 409
a 119 278
a 119 279
a 119 384
a 119 280
a 119 281
a 119 283
a 119 284
a 119 416
a 119 417
a 119 170
a 119 285
a 119 286
a 119 287
a 119 288
a 119 289
a 119 290
a 119 422
a 119 292
a 119 111
a 119 293
a 119 294
a 119 296
a 119 297
a 119 299
a 119 300
a 119 172
a 119 301
a 119 302
a 119 303
a 119 304
a 119 305
a 119 306
a 119 307
a 119 144
a 119 394
a 119 112
a 119 175
a 119 308
a 119 135
a 119 180
a 119 114
a 119 52
a 119 434
a 119 55
a 119 181
a 119 435
a 119 311
a 119 99
a 119 182
a 119 312
a 119 116
a 119 183
a 119 385
a 119 313
a 119 436
a 119 184
a 120 3
a 120 2
a 120 5
a 120 4
a 120 147
a 120 6
a 120 7
a 120 8
a 120 9
a 120 10
a 120 11
a 120 152
a 120 153
a 120 12
a 120 13
a 120 155
a 120 107
a 120 14
a 120 15
a 120 16
a 120 17
a 120 18
a 120 19
a 120 20
a 120 21
a 120 22
a 120 24
a 120 26
a 120 27
a 120 28
a 120 30
a 120 31
a 120 32
a 120 33
a 120 34
a 120 35
a 120 36
a 120 37
a 120 38
a 120 39
a 120 40
a 120 41
a 120 42
a 120 43
a 120 44
a 120 45
a 120 46
a 120 47
a 120 48
a 120 49
a 120 115
a 120 50
a 120 51
a 120 52
a 120 53
a 120 54
a 120 55
a 120 56
a 120 57
a 120 58
a 120 59
a 120 60
a 120 61
a 120 62
a 120 63
a 120 64
a 120 65
a 120 66
a 120 382
a 120 123
a 120 67
a 120 68
a 120 125
a 120 69
a 120 70
a 120 71
a 120 72
a 120 383
a 120 73
a 120 74
a 120 75
a 120 76
a 120 77
a 120 78
a 120 81
a 120 82
a 120 83
a 120 84
a 120 85
a 120 138
a 120 126
a 120 88
a 120 91
a 120 92
a 120 93
a 120 94
a 120 95
a 120 98
a 120 129
a 120 182
a 120 312
a 120 116
a 120 385
a 120 313
a 121 3
a 121 2
a 121 5
a 121 4
a 121 6
a 121 7
a 121 8
a 121 9
a 121 10
a 121 102
a 121 11
a 121 12
a 121 13
a 121 106
a 121 14
a 121 15
a 121 16
a 121 17
a 121 18
a 121 19
a 121 20
a 121 21
a 121 22
a 121 23
a 121 24
a 121 25
a 121 26
a 121 27
a 121 28
a 121 29
a 121 30
a 121 31
a 121 32
a 121 33
a 121 34
a 121 35
a 121 36
a 121 37
a 121 38
a 121 39
a 121 40
a 121 41
a 121 113
a 121 42
a 121 43
a 121 44
a 121 45
a 121 46
a 121 47
a 121 48
a 121 49
a 121 50
a 121 51
a 121 52
a 121 53
a 121 54
a 121 55
a 121 56
a 121 57
a 121 58
a 121 59
a 121 60
a 121 99
a 121 61
a 121 62
a 121 63
a 121 64
a 121 65
a 121 66
a 121 123
a 121 67
a 121 124
a 121 69
a 121 70
a 121 71
a 121 72
a 121 73
a 121 74
a 121 75
a 121 76
a 121 78
a 121 80
a 121 81
a 121 82
a 121 84
a 121 85
a 121 387
a 121 88
a 121 89
a 121 90
a 121 91
a 121 101
a 121 92
a 121 93
a 121 94
a 121 95
a 121 155
a 121 96
a 121 236
a 121 97
a 121 108
a 121 143
a 121 240
a 64 3
a 64 6
a 64 318
a 64 317
a 64 186
a 64 188
a 64 189
a 64 332
a 64 190
a 64 193
a 64 194
a 64 196
a 64 197
a 64 198
a 64 199
a 64 201
a 64 203
a 64 205
a 64 340
a 64 148
a 64 342
a 64 212
a 64 213
a 64 344
a 64 217
a 64 346
a 64 348
a 64 2
a 64 5
a 64 4
a 64 1
a 64 100
a 64 119
a 64 120
a 64 121
a 64 137
a 64 8
a 64 9
a 64 149
a 64 65
a 64 66
a 64 67
a 64 71
a 64 73
a 64 74
a 64 78
a 64 80
a 64 83
a 64 84
a 64 86
a 64 138
a 64 10
a 64 89
a 64 90
a 64 91
a 64 101
a 64 93
a 64 95
a 64 102
a 64 150
a 64 11
a 64 219
a 64 220
a 64 152
a 64 13
a 64 105
a 64 232
a 64 154
a 64 155
a 64 106
a 64 157
a 64 158
a 64 107
a 64 14
a 64 15
a 64 133
a 64 134
a 64 16
a 64 159
a 64 160
a 64 17
a 64 19
a 64 319
a 64 20
a 64 97
a 64 108
a 64 98
a 64 21
a 64 22
a 64 128
a 64 23
a 64 161
a 64 162
a 64 163
a 64 164
a 64 109
a 64 253
a 64 25
a 64 129
a 64 324
a 64 28
a 64 367
a 64 31
a 64 384
a 64 32
a 64 34
a 64 35
a 64 111
a 64 36
a 64 37
a 64 38
a 64 172
a 64 307
a 64 174
a 64 112
a 64 175
a 64 176
a 64 135
a 64 177
a 64 178
a 64 179
a 64 136
a 64 41
a 64 113
a 64 42
a 64 43
a 64 44
a 64 45
a 64 46
a 64 114
a 64 47
a 64 48
a 64 49
a 64 115
a 64 50
a 64 51
a 64 52
a 64 53
a 64 54
a 64 55
a 64 181
a 64 56
a 64 57
a 64 58
a 64 59
a 64 60
a 64 311
a 64 99
a 64 116
a 64 183
a 64 61
a 64 62
a 64 184
a 64 63
a 64 185
a 64 382
a 64 122
a 64 123
a 64 68
a 64 125
a 64 69
a 64 70
a 64 72
a 64 383
a 64 75
a 64 76
a 64 77
a 64 81
a 64 82
a 64 387
a 64 126
a 64 88
a 64 151
a 64 218
a 64 377
a 64 378
a 64 221
a 64 104
a 64 223
a 64 12
a 64 229
a 64 230
a 64 141
a 64 142
a 64 234
a 64 403
a 64 404
a 64 18
a 64 351
a 64 96
a 64 236
a 64 237
a 64 239
a 64 320
a 64 143
a 64 240
a 64 127
a 64 392
a 64 456
a 64 458
a 64 249
a 64 250
a 64 255
a 64 256
a 64 265
a 64 266
a 64 267
a 64 268
a 64 27
a 64 269
a 64 271
a 64 272
a 64 110
a 64 273
a 64 275
a 64 167
a 64 276
a 64 168
a 64 277
a 64 325
a 64 409
a 64 326
a 64 278
a 64 368
a 64 279
a 64 412
a 64 280
a 64 281
a 64 282
a 64 330
a 64 283
a 64 284
a 64 416
a 64 417
a 64 170
a 64 285
a 64 372
a 64 286
a 64 287
a 64 288
a 64 289
a 64 290
a 64 422
a 64 291
a 64 292
a 64 293
a 64 294
a 64 296
a 64 297
a 64 299
a 64 300
a 64 301
a 64 302
a 64 303
a 64 304
a 64 305
a 64 306
a 64 144
a 64 394
a 64 374
a 64 428
a 64 430
a 64 308
a 64 474
a 64 40
a 64 180
a 64 434
a 64 435
a 64 182
a 64 312
a 64 385
a 64 313
a 64 436
a 65 3
a 65 6
a 65 317
a 65 186
a 65 188
a 65 189
a 65 332
a 65 190
a 65 193
a 65 196
a 65 197
a 65 198
a 65 199
a 65 205
a 65 340
a 65 148
a 65 342
a 65 344
a 65 217
a 65 346
a 65 64
a 65 2
a 65 5
a 65 4
a 65 1
a 65 100
a 65 119
a 65 120
a 65 132
a 65 121
a 65 137
a 65 318
a 65 8
a 65 66
a 65 382
a 65 123
a 65 67
a 65 68
a 65 70
a 65 71
a 65 74
a 65 79
a 65 80
a 65 83
a 65 84
a 65 10
a 65 126
a 65 90
a 65 101
a 65 93
a 65 94
a 65 95
a 65 102
a 65 151
a 65 219
a 65 220
a 65 152
a 65 13
a 65 105
a 65 232
a 65 154
a 65 155
a 65 106
a 65 107
a 65 14
a 65 133
a 65 134
a 65 16
a 65 159
a 65 17
a 65 20
a 65 236
a 65 108
a 65 98
a 65 21
a 65 22
a 65 127
a 65 128
a 65 23
a 65 164
a 65 109
a 65 253
a 65 255
a 65 25
a 65 129
a 65 324
a 65 130
a 65 110
a 65 463
a 65 29
a 65 384
a 65 32
a 65 34
a 65 35
a 65 111
a 65 36
a 65 38
a 65 172
a 65 307
a 65 112
a 65 135
a 65 179
a 65 136
a 65 40
a 65 41
a 65 113
a 65 42
a 65 43
a 65 44
a 65 45
a 65 46
a 65 114
a 65 47
a 65 48
a 65 49
a 65 115
a 65 50
a 65 51
a 65 52
a 65 53
a 65 54
a 65 55
a 65 181
a 65 56
a 65 57
a 65 58
a 65 59
a 65 60
a 65 311
a 65 99
a 65 183
a 65 61
a 65 62
a 65 184
a 65 63
a 65 185
a 65 125
a 65 69
a 65 72
a 65 73
a 65 81
a 65 218
a 65 221
a 65 104
a 65 229
a 65 230
a 65 141
a 65 142
a 65 234
a 65 15
a 65 404
a 65 239
a 65 97
a 65 143
a 65 240
a 65 249
a 65 250
a 65 256
a 65 265
a 65 266
a 65 267
a 65 268
a 65 27
a 65 269
a 65 271
a 65 272
a 65 273
a 65 275
a 65 276
a 65 168
a 65 31
a 65 277
a 65 278
a 65 279
a 65 280
a 65 281
a 65 283
a 65 284
a 65 416
a 65 417
a 65 170
a 65 285
a 65 286
a 65 287
a 65 288
a 65 289
a 65 290
a 65 422
a 65 292
a 65 293
a 65 294
a 65 296
a 65 297
a 65 37
a 65 299
a 65 300
a 65 301
a 65 302
a 65 303
a 65 305
a 65 306
a 65 394
a 65 308
a 65 180
a 65 434
a 65 182
a 65 312
a 65 116
a 65 385
a 65 313
a 65 436
a 66 3
a 66 6
a 66 317
a 66 186
a 66 188
a 66 189
a 66 332
a 66 190
a 66 193
a 66 196
a 66 197
a 66 198
a 66 199
a 66 205
a 66 340
a 66 148
a 66 342
a 66 344
a 66 217
a 66 346
a 66 64
a 66 65
a 66 5
a 66 4
a 66 117
a 66 1
a 66 100
a 66 119
a 66 120
a 66 121
a 66 382
a 66 71
a 66 78
a 66 84
a 66 10
a 66 90
a 66 101
a 66 93
a 66 95
a 66 102
a 66 220
a 66 13
a 66 105
a 66 232
a 66 154
a 66 155
a 66 106
a 66 156
a 66 158
a 66 107
a 66 14
a 66 133
a 66 134
a 66 16
a 66 159
a 66 17
a 66 20
a 66 108
a 66 98
a 66 21
a 66 22
a 66 127
a 66 128
a 66 23
a 66 164
a 66 253
a 66 255
a 66 25
a 66 129
a 66 367
a 66 384
a 66 32
a 66 34
a 66 285
a 66 111
a 66 36
a 66 37
a 66 38
a 66 112
a 66 179
a 66 136
a 66 41
a 66 113
a 66 42
a 66 43
a 66 44
a 66 45
a 66 46
a 66 114
a 66 47
a 66 48
a 66 49
a 66 115
a 66 50
a 66 51
a 66 52
a 66 53
a 66 54
a 66 55
a 66 181
a 66 56
a 66 57
a 66 58
a 66 59
a 66 60
a 66 99
a 66 116
a 66 183
a 66 61
a 66 62
a 66 184
a 66 63
a 66 185
a 66 122
a 66 67
a 66 68
a 66 125
a 66 69
a 66 70
a 66 72
a 66 383
a 66 73
a 66 74
a 66 75
a 66 76
a 66 77
a 66 81
a 66 126
a 66 88
a 66 91
a 66 151
a 66 218
a 66 139
a 66 386
a 66 350
a 66 391
a 66 221
a 66 104
a 66 229
a 66 230
a 66 450
a 66 141
a 66 142
a 66 234
a 66 15
a 66 404
a 66 18
a 66 236
a 66 239
a 66 97
a 66 143
a 66 240
a 66 249
a 66 250
a 66 256
a 66 265
a 66 266
a 66 267
a 66 268
a 66 27
a 66 269
a 66 271
a 66 272
a 66 273
a 66 275
a 66 167
a 66 276
a 66 168
a 66 31
a 66 277
a 66 278
a 66 279
a 66 280
a 66 281
a 66 283
a 66 284
a 66 416
a 66 417
a 66 170
a 66 286
a 66 287
a 66 288
a 66 289
a 66 290
a 66 422
a 66 292
a 66 293
a 66 294
a 66 296
a 66 297
a 66 299
a 66 300
a 66 172
a 66 301
a 66 302
a 66 303
a 66 305
a 66 306
a 66 307
a 66 394
a 66 308
a 66 135
a 66 474
a 66 40
a 66 180
a 66 434
a 66 311
a 66 182
a 66 312
a 66 385
a 66 313
a 66 436
a 138 3
a 138 6
a 138 317
a 138 186
a 138 187
a 138 188
a 138 189
a 138 332
a 138 190
a 138 193
a 138 194
a 138 196
a 138 197
a 138 198
a 138 199
a 138 200
a 138 201
a 138 202
a 138 203
a 138 205
a 138 207
a 138 208
a 138 340
a 138 148
a 138 342
a 138 344
a 138 217
a 138 346
a 138 64
a 138 68
a 138 81
a 138 83
a 138 85
a 138 86
a 138 100
a 138 119
a 138 120
a 138 70
a 138 71
a 138 80
a 138 87
a 138 10
a 138 88
a 138 102
a 138 12
a 138 13
a 138 154
a 138 106
a 138 107
a 138 134
a 138 16
a 138 20
a 138 108
a 138 98
a 138 21
a 138 22
a 138 128
a 138 23
a 138 109
a 138 253
a 138 25
a 138 129
a 138 130
a 138 275
a 138 367
a 138 384
a 138 32
a 138 34
a 138 38
a 138 41
a 138 113
a 138 42
a 138 43
a 138 44
a 138 46
a 138 114
a 138 47
a 138 48
a 138 49
a 138 115
a 138 50
a 138 52
a 138 53
a 138 54
a 138 55
a 138 181
a 138 56
a 138 57
a 138 58
a 138 59
a 138 60
a 138 311
a 138 99
a 138 61
a 138 62
a 138 63
a 138 126
a 138 95
a 138 151
a 138 218
a 138 220
a 138 221
a 138 104
a 138 229
a 138 141
a 138 142
a 138 234
a 138 14
a 138 15
a 138 133
a 138 404
a 138 17
a 138 236
a 138 239
a 138 97
a 138 143
a 138 240
a 138 127
a 138 250
a 138 255
a 138 256
a 138 265
a 138 266
a 138 267
a 138 268
a 138 27
a 138 269
a 138 271
a 138 272
a 138 273
a 138 276
a 138 168
a 138 31
a 138 277
a 138 278
a 138 279
a 138 280
a 138 281
a 138 283
a 138 284
a 138 416
a 138 417
a 138 170
a 138 285
a 138 286
a 138 287
a 138 288
a 138 289
a 138 290
a 138 422
a 138 292
a 138 111
a 138 293
a 138 294
a 138 296
a 138 297
a 138 37
a 138 298
a 138 299
a 138 300
a 138 172
a 138 301
a 138 302
a 138 305
a 138 306
a 138 307
a 138 394
a 138 112
a 138 308
a 138 135
a 138 309
a 138 40
a 138 180
a 138 51
a 138 434
a 138 182
a 138 312
a 138 116
a 138 183
a 138 436
a 138 184
a 155 3
a 155 131
a 155 119
a 155 145
a 155 120
a 155 6
a 155 318
a 155 7
a 155 8
a 155 64
a 155 65
a 155 66
a 155 382
a 155 122
a 155 123
a 155 67
a 155 124
a 155 68
a 155 125
a 155 69
a 155 70
a 155 71
a 155 72
a 155 383
a 155 73
a 155 74
a 155 75
a 155 76
a 155 77
a 155 78
a 155 79
a 155 80
a 155 81
a 155 82
a 155 83
a 155 84
a 155 85
a 155 387
a 155 126
a 155 88
a 155 90
a 155 101
a 155 92
a 155 93
a 155 440
a 155 94
a 155 95
a 155 388
a 155 389
a 155 151
a 155 218
a 155 377
a 155 349
a 155 139
a 155 443
a 155 444
a 155 219
a 155 220
a 155 386
a 155 350
a 155 152
a 155 153
a 155 445
a 155 391
a 155 12
a 155 447
a 155 451
a 155 140
a 155 141
a 155 142
a 155 232
a 155 154
a 155 117
a 155 121
a 155 317
a 155 148
a 155 10
a 155 102
a 155 397
a 155 477
a 155 378
a 155 103
a 155 104
a 155 228
a 155 105
a 155 106
a 155 158
a 155 107
a 155 14
a 155 133
a 155 134
a 155 484
a 155 16
a 155 159
a 155 404
a 155 160
a 155 452
a 155 453
a 155 454
a 155 17
a 155 96
a 155 352
a 155 236
a 155 239
a 155 240
a 155 21
a 155 22
a 155 127
a 155 128
a 155 23
a 155 164
a 155 252
a 155 253
a 155 255
a 155 261
a 155 264
a 155 265
a 155 266
a 155 110
a 155 367
a 155 167
a 155 279
a 155 414
a 155 370
a 155 32
a 155 34
a 155 289
a 155 111
a 155 112
a 155 135
a 155 179
a 155 136
a 155 41
a 155 113
a 155 42
a 155 43
a 155 44
a 155 45
a 155 46
a 155 114
a 155 47
a 155 48
a 155 49
a 155 115
a 155 50
a 155 51
a 155 52
a 155 53
a 155 54
a 155 55
a 155 181
a 155 56
a 155 57
a 155 58
a 155 59
a 155 60
a 155 99
a 155 183
a 155 61
a 155 62
a 155 184
a 155 63
a 155 185
a 155 18
a 155 351
a 155 19
a 155 319
a 155 235
a 155 455
a 155 20
a 155 237
a 155 97
a 155 108
a 155 98
a 155 320
a 155 143
a 155 241
a 155 243
a 155 162
a 155 163
a 155 109
a 155 244
a 155 246
a 155 248
a 155 249
a 155 250
a 155 166
a 155 359
a 155 321
a 155 251
a 155 24
a 155 254
a 155 360
a 155 322
a 155 362
a 155 129
a 155 270
a 155 271
a 155 130
a 155 326
a 155 368
a 155 330
a 155 284
a 155 372
a 155 468
a 155 423
a 155 292
a 155 294
a 155 295
a 155 296
a 155 297
a 155 427
a 155 144
a 155 394
a 155 374
a 155 39
a 155 40
a 155 436
a 158 3
a 158 6
a 158 317
a 158 7
a 158 186
a 158 187
a 158 188
a 158 189
a 158 332
a 158 190
a 158 192
a 158 193
a 158 194
a 158 196
a 158 197
a 158 198
a 158 199
a 158 200
a 158 203
a 158 206
a 158 337
a 158 207
a 158 340
a 158 148
a 158 341
a 158 214
a 158 344
a 158 217
a 158 64
a 158 66
a 158 68
a 158 70
a 158 73
a 158 81
a 158 84
a 158 86
a 158 126
a 158 95
a 158 151
a 158 218
a 158 377
a 158 139
a 158 219
a 158 220
a 158 104
a 158 447
a 158 230
a 158 142
a 158 232
a 158 154
a 158 155
a 158 318
a 158 80
a 158 10
a 158 102
a 158 397
a 158 378
a 158 221
a 158 222
a 158 225
a 158 381
a 158 12
a 158 140
a 158 141
a 158 105
a 158 106
a 158 157
a 158 107
a 158 133
a 158 134
a 158 484
a 158 16
a 158 404
a 158 452
a 158 453
a 158 17
a 158 96
a 158 352
a 158 455
a 158 20
a 158 236
a 158 237
a 158 240
a 158 21
a 158 22
a 158 127
a 158 128
a 158 251
a 158 252
a 158 253
a 158 322
a 158 255
a 158 256
a 158 264
a 158 406
a 158 266
a 158 110
a 158 367
a 158 167
a 158 279
a 158 414
a 158 32
a 158 34
a 158 296
a 158 297
a 158 428
a 158 112
a 158 136
a 158 41
a 158 113
a 158 42
a 158 43
a 158 44
a 158 46
a 158 114
a 158 47
a 158 48
a 158 49
a 158 50
a 158 51
a 158 52
a 158 53
a 158 54
a 158 55
a 158 181
a 158 56
a 158 57
a 158 58
a 158 59
a 158 60
a 158 99
a 158 183
a 158 61
a 158 396
a 158 62
a 158 63
a 158 185
a 158 234
a 158 403
a 158 97
a 158 108
a 158 143
a 158 23
a 158 243
a 158 164
a 158 249
a 158 250
a 158 263
a 158 265
a 158 129
a 158 267
a 158 268
a 158 27
a 158 269
a 158 272
a 158 30
a 158 168
a 158 277
a 158 280
a 158 281
a 158 415
a 158 284
a 158 285
a 158 288
a 158 289
a 158 291
a 158 292
a 158 111
a 158 293
a 158 294
a 158 37
a 158 299
a 158 38
a 158 300
a 158 172
a 158 301
a 158 307
a 158 394
a 158 308
a 158 135
a 158 40
a 158 45
a 158 180
a 158 115
a 158 434
a 158 311
a 158 182
a 158 312
a 158 116
a 158 385
a 158 476
a 158 436
a 158 184
a 133 3
a 133 100
a 133 6
a 133 318
a 133 317
a 133 7
a 133 186
a 133 188
a 133 189
a 133 332
a 133 190
a 133 193
a 133 194
a 133 196
a 133 197
a 133 198
a 133 199
a 133 201
a 133 203
a 133 205
a 133 340
a 133 148
a 133 342
a 133 212
a 133 213
a 133 344
a 133 217
a 133 346
a 133 348
a 133 64
a 133 65
a 133 66
a 133 123
a 133 124
a 133 68
a 133 69
a 133 70
a 133 73
a 133 78
a 133 81
a 133 82
a 133 83
a 133 84
a 133 86
a 133 10
a 133 126
a 133 95
a 133 102
a 133 151
a 133 218
a 133 377
a 133 443
a 133 444
a 133 219
a 133 220
a 133 386
a 133 350
a 133 446
a 133 391
a 133 104
a 133 223
a 133 225
a 133 12
a 133 229
a 133 230
a 133 398
a 133 231
a 133 399
a 133 401
a 133 402
a 133 141
a 133 142
a 133 105
a 133 232
a 133 154
a 133 155
a 133 158
a 133 107
a 133 234
a 133 14
a 133 15
a 133 403
a 133 119
a 133 138
a 133 150
a 133 390
a 133 106
a 133 134
a 133 484
a 133 16
a 133 159
a 133 404
a 133 405
a 133 452
a 133 352
a 133 236
a 133 21
a 133 22
a 133 128
a 133 161
a 133 162
a 133 164
a 133 253
a 133 255
a 133 25
a 133 28
a 133 370
a 133 34
a 133 111
a 133 38
a 133 174
a 133 112
a 133 175
a 133 176
a 133 308
a 133 135
a 133 177
a 133 179
a 133 136
a 133 41
a 133 113
a 133 42
a 133 43
a 133 44
a 133 46
a 133 114
a 133 47
a 133 49
a 133 115
a 133 50
a 133 51
a 133 52
a 133 53
a 133 54
a 133 55
a 133 181
a 133 56
a 133 57
a 133 58
a 133 59
a 133 60
a 133 99
a 133 183
a 133 61
a 133 62
a 133 184
a 133 63
a 133 185
a 133 453
a 133 17
a 133 18
a 133 235
a 133 20
a 133 239
a 133 97
a 133 108
a 133 98
a 133 143
a 133 240
a 133 241
a 133 242
a 133 353
a 133 127
a 133 23
a 133 243
a 133 459
a 133 109
a 133 244
a 133 248
a 133 249
a 133 250
a 133 251
a 133 252
a 133 479
a 133 256
a 133 26
a 133 263
a 133 264
a 133 265
a 133 266
a 133 129
a 133 407
a 133 267
a 133 268
a 133 27
a 133 269
a 133 271
a 133 272
a 133 110
a 133 273
a 133 274
a 133 366
a 133 30
a 133 275
a 133 167
a 133 276
a 133 168
a 133 31
a 133 169
a 133 277
a 133 325
a 133 409
a 133 326
a 133 328
a 133 278
a 133 368
a 133 279
a 133 329
a 133 384
a 133 412
a 133 280
a 133 281
a 133 282
a 133 283
a 133 32
a 133 33
a 133 284
a 133 417
a 133 170
a 133 285
a 133 286
a 133 287
a 133 288
a 133 289
a 133 290
a 133 420
a 133 422
a 133 35
a 133 291
a 133 292
a 133 293
a 133 294
a 133 295
a 133 296
a 133 297
a 133 37
a 133 299
a 133 300
a 133 172
a 133 301
a 133 302
a 133 303
a 133 304
a 133 305
a 133 306
a 133 307
a 133 427
a 133 144
a 133 394
a 133 428
a 133 429
a 133 430
a 133 431
a 133 309
a 133 40
a 133 45
a 133 180
a 133 48
a 133 434
a 133 435
a 133 311
a 133 182
a 133 312
a 133 116
a 133 396
a 133 385
a 133 476
a 133 436
a 134 3
a 134 100
a 134 6
a 134 318
a 134 317
a 134 7
a 134 186
a 134 188
a 134 189
a 134 332
a 134 190
a 134 193
a 134 196
a 134 197
a 134 198
a 134 199
a 134 205
a 134 340
a 134 148
a 134 342
a 134 212
a 134 344
a 134 217
a 134 346
a 134 348
a 134 64
a 134 65
a 134 66
a 134 382
a 134 122
a 134 123
a 134 67
a 134 124
a 134 68
a 134 125
a 134 69
a 134 70
a 134 71
a 134 72
a 134 383
a 134 73
a 134 74
a 134 75
a 134 76
a 134 77
a 134 78
a 134 79
a 134 80
a 134 81
a 134 82
a 134 83
a 134 84
a 134 85
a 134 387
a 134 86
a 134 138
a 134 10
a 134 126
a 134 88
a 134 89
a 134 90
a 134 91
a 134 101
a 134 92
a 134 93
a 134 94
a 134 95
a 134 102
a 134 150
a 134 388
a 134 389
a 134 151
a 134 218
a 134 377
a 134 139
a 134 443
a 134 444
a 134 219
a 134 220
a 134 386
a 134 350
a 134 446
a 134 104
a 134 223
a 134 225
a 134 12
a 134 229
a 134 230
a 134 398
a 134 231
a 134 401
a 134 141
a 134 142
a 134 105
a 134 232
a 134 154
a 134 155
a 134 106
a 134 157
a 134 158
a 134 107
a 134 234
a 134 14
a 134 15
a 134 403
a 134 133
a 134 119
a 134 397
a 134 390
a 134 477
a 134 378
a 134 11
a 134 103
a 134 221
a 134 228
a 134 399
a 134 484
a 134 16
a 134 159
a 134 404
a 134 160
a 134 405
a 134 452
a 134 453
a 134 454
a 134 17
a 134 96
a 134 352
a 134 20
a 134 236
a 134 237
a 134 238
a 134 239
a 134 240
a 134 21
a 134 22
a 134 127
a 134 128
a 134 392
a 134 161
a 134 164
a 134 251
a 134 252
a 134 253
a 134 255
a 134 25
a 134 258
a 134 260
a 134 261
a 134 263
a 134 264
a 134 406
a 134 265
a 134 110
a 134 28
a 134 273
a 134 274
a 134 366
a 134 367
a 134 167
a 134 410
a 134 279
a 134 414
a 134 370
a 134 32
a 134 34
a 134 287
a 134 35
a 134 111
a 134 296
a 134 36
a 134 37
a 134 38
a 134 429
a 134 112
a 134 135
a 134 177
a 134 178
a 134 179
a 134 136
a 134 309
a 134 40
a 134 41
a 134 113
a 134 42
a 134 43
a 134 44
a 134 45
a 134 46
a 134 114
a 134 47
a 134 48
a 134 49
a 134 115
a 134 50
a 134 51
a 134 52
a 134 53
a 134 54
a 134 55
a 134 181
a 134 56
a 134 57
a 134 58
a 134 59
a 134 60
a 134 311
a 134 99
a 134 183
a 134 61
a 134 396
a 134 62
a 134 184
a 134 63
a 134 185
a 134 18
a 134 19
a 134 97
a 134 108
a 134 98
a 134 320
a 134 143
a 134 353
a 134 23
a 134 243
a 134 109
a 134 244
a 134 249
a 134 250
a 134 256
a 134 266
a 134 129
a 134 324
a 134 267
a 134 268
a 134 27
a 134 269
a 134 271
a 134 272
a 134 130
a 134 30
a 134 275
a 134 276
a 134 168
a 134 31
a 134 277
a 134 409
a 134 326
a 134 278
a 134 368
a 134 384
a 134 412
a 134 280
a 134 281
a 134 282
a 134 283
a 134 284
a 134 393
a 134 285
a 134 286
a 134 288
a 134 289
a 134 290
a 134 331
a 134 420
a 134 422
a 134 291
a 134 292
a 134 424
a 134 293
a 134 294
a 134 295
a 134 297
a 134 299
a 134 300
a 134 172
a 134 301
a 134 302
a 134 303
a 134 304
a 134 305
a 134 306
a 134 307
a 134 427
a 134 144
a 134 394
a 134 174
a 134 175
a 134 308
a 134 39
a 134 180
a 134 434
a 134 435
a 134 182
a 134 312
a 134 116
a 134 385
a 134 313
a 134 476
a 134 436
a 159 3
a 159 137
a 159 6
a 159 318
a 159 317
a 159 7
a 159 186
a 159 188
a 159 189
a 159 332
a 159 190
a 159 193
a 159 196
a 159 197
a 159 198
a 159 199
a 159 205
a 159 340
a 159 148
a 159 342
a 159 213
a 159 344
a 159 217
a 159 346
a 159 64
a 159 65
a 159 66
a 159 68
a 159 70
a 159 73
a 159 78
a 159 81
a 159 82
a 159 84
a 159 86
a 159 126
a 159 95
a 159 151
a 159 218
a 159 377
a 159 219
a 159 220
a 159 350
a 159 104
a 159 12
a 159 229
a 159 230
a 159 141
a 159 142
a 159 154
a 159 155
a 159 157
a 159 107
a 159 234
a 159 14
a 159 15
a 159 403
a 159 133
a 159 134
a 159 16
a 159 10
a 159 102
a 159 397
a 159 390
a 159 378
a 159 11
a 159 105
a 159 232
a 159 106
a 159 484
a 159 405
a 159 452
a 159 453
a 159 17
a 159 96
a 159 352
a 159 236
a 159 21
a 159 22
a 159 128
a 159 392
a 159 164
a 159 253
a 159 255
a 159 25
a 159 271
a 159 110
a 159 167
a 159 279
a 159 414
a 159 370
a 159 34
a 159 111
a 159 112
a 159 179
a 159 136
a 159 41
a 159 113
a 159 42
a 159 43
a 159 44
a 159 46
a 159 114
a 159 47
a 159 48
a 159 49
a 159 115
a 159 50
a 159 51
a 159 52
a 159 53
a 159 54
a 159 55
a 159 181
a 159 56
a 159 57
a 159 58
a 159 59
a 159 60
a 159 99
a 159 183
a 159 61
a 159 62
a 159 184
a 159 63
a 159 185
a 159 404
a 159 20
a 159 239
a 159 97
a 159 108
a 159 98
a 159 143
a 159 240
a 159 127
a 159 243
a 159 109
a 159 249
a 159 250
a 159 256
a 159 264
a 159 265
a 159 129
a 159 267
a 159 268
a 159 27
a 159 269
a 159 272
a 159 28
a 159 273
a 159 274
a 159 30
a 159 275
a 159 276
a 159 168
a 159 31
a 159 277
a 159 409
a 159 278
a 159 280
a 159 281
a 159 282
a 159 283
a 159 284
a 159 285
a 159 286
a 159 287
a 159 288
a 159 289
a 159 290
a 159 422
a 159 291
a 159 292
a 159 293
a 159 294
a 159 295
a 159 296
a 159 297
a 159 37
a 159 299
a 159 38
a 159 300
a 159 172
a 159 301
a 159 302
a 159 304
a 159 305
a 159 306
a 159 307
a 159 427
a 159 144
a 159 394
a 159 175
a 159 308
a 159 135
a 159 40
a 159 45
a 159 180
a 159 434
a 159 435
a 159 182
a 159 312
a 159 116
a 159 396
a 159 385
a 159 476
a 159 436
a 164 3
a 164 137
a 164 6
a 164 314
a 164 315
a 164 316
a 164 318
a 164 317
a 164 7
a 164 8
a 164 186
a 164 187
a 164 188
a 164 189
a 164 332
a 164 190
a 164 191
a 164 192
a 164 193
a 164 194
a 164 195
a 164 196
a 164 333
a 164 197
a 164 198
a 164 199
a 164 200
a 164 334
a 164 201
a 164 202
a 164 203
a 164 204
a 164 205
a 164 206
a 164 207
a 164 208
a 164 209
a 164 340
a 164 148
a 164 341
a 164 395
a 164 342
a 164 438
a 164 210
a 164 212
a 164 213
a 164 214
a 164 215
a 164 344
a 164 345
a 164 217
a 164 346
a 164 439
a 164 149
a 164 347
a 164 348
a 164 64
a 164 65
a 164 66
a 164 68
a 164 125
a 164 69
a 164 70
a 164 71
a 164 72
a 164 383
a 164 73
a 164 74
a 164 75
a 164 76
a 164 77
a 164 78
a 164 80
a 164 81
a 164 83
a 164 84
a 164 86
a 164 10
a 164 126
a 164 88
a 164 90
a 164 101
a 164 92
a 164 93
a 164 94
a 164 95
a 164 102
a 164 150
a 164 389
a 164 151
a 164 397
a 164 218
a 164 377
a 164 349
a 164 378
a 164 442
a 164 139
a 164 219
a 164 220
a 164 350
a 164 153
a 164 391
a 164 221
a 164 104
a 164 222
a 164 223
a 164 224
a 164 225
a 164 226
a 164 227
a 164 12
a 164 13
a 164 229
a 164 447
a 164 448
a 164 230
a 164 398
a 164 231
a 164 449
a 164 399
a 164 400
a 164 401
a 164 402
a 164 451
a 164 141
a 164 142
a 164 105
a 164 232
a 164 154
a 164 155
a 164 107
a 164 234
a 164 15
a 164 133
a 164 134
a 164 159
a 164 404
a 164 17
a 164 18
a 164 19
a 164 319
a 164 96
a 164 235
a 164 352
a 164 455
a 164 20
a 164 236
a 164 237
a 164 238
a 164 239
a 164 97
a 164 108
a 164 98
a 164 320
a 164 143
a 164 240
a 164 21
a 164 241
a 164 242
a 164 22
a 164 353
a 164 127
a 164 128
a 164 23
a 164 392
a 164 162
a 164 117
a 164 441
a 164 386
a 164 446
a 164 379
a 164 228
a 164 381
a 164 106
a 164 158
a 164 14
a 164 16
a 164 109
a 164 165
a 164 166
a 164 359
a 164 251
a 164 252
a 164 253
a 164 24
a 164 254
a 164 255
a 164 25
a 164 256
a 164 26
a 164 460
a 164 362
a 164 260
a 164 261
a 164 263
a 164 264
a 164 265
a 164 266
a 164 363
a 164 271
a 164 272
a 164 110
a 164 28
a 164 29
a 164 273
a 164 274
a 164 30
a 164 275
a 164 367
a 164 167
a 164 168
a 164 279
a 164 412
a 164 413
a 164 280
a 164 281
a 164 282
a 164 330
a 164 283
a 164 32
a 164 33
a 164 34
a 164 286
a 164 287
a 164 289
a 164 467
a 164 373
a 164 35
a 164 291
a 164 292
a 164 111
a 164 297
a 164 37
a 164 171
a 164 299
a 164 38
a 164 173
a 164 307
a 164 394
a 164 174
a 164 428
a 164 429
a 164 112
a 164 135
a 164 179
a 164 136
a 164 40
a 164 41
a 164 113
a 164 42
a 164 43
a 164 44
a 164 46
a 164 114
a 164 47
a 164 48
a 164 49
a 164 115
a 164 50
a 164 51
a 164 52
a 164 53
a 164 54
a 164 55
a 164 181
a 164 56
a 164 57
a 164 58
a 164 59
a 164 60
a 164 99
a 164 183
a 164 61
a 164 62
a 164 184
a 164 63
a 164 185
a 164 244
a 164 245
a 164 247
a 164 248
a 164 249
a 164 250
a 164 321
a 164 322
a 164 361
a 164 257
a 164 406
a 164 323
a 164 129
a 164 407
a 164 267
a 164 268
a 164 27
a 164 269
a 164 408
a 164 462
a 164 270
a 164 130
a 164 366
a 164 464
a 164 276
a 164 31
a 164 277
a 164 325
a 164 327
a 164 278
a 164 384
a 164 414
a 164 284
a 164 416
a 164 417
a 164 170
a 164 285
a 164 372
a 164 288
a 164 290
a 164 331
a 164 419
a 164 420
a 164 421
a 164 422
a 164 468
a 164 423
a 164 293
a 164 294
a 164 295
a 164 296
a 164 36
a 164 425
a 164 298
a 164 426
a 164 300
a 164 172
a 164 301
a 164 302
a 164 303
a 164 304
a 164 472
a 164 305
a 164 306
a 164 427
a 164 144
a 164 374
a 164 175
a 164 430
a 164 308
a 164 433
a 164 309
a 164 180
a 164 434
a 164 311
a 164 182
a 164 312
a 164 116
a 164 436
a 174 3
a 174 6
a 174 317
a 174 186
a 174 188
a 174 189
a 174 190
a 174 192
a 174 193
a 174 194
a 174 196
a 174 197
a 174 198
a 174 199
a 174 200
a 174 205
a 174 207
a 174 339
a 174 340
a 174 148
a 174 344
a 174 217
a 174 346
a 174 348
a 174 64
a 174 68
a 174 126
a 174 95
a 174 151
a 174 218
a 174 220
a 174 229
a 174 398
a 174 141
a 174 142
a 174 106
a 174 107
a 174 15
a 174 133
a 174 17
a 174 352
a 174 20
a 174 236
a 174 239
a 174 97
a 174 143
a 174 240
a 174 21
a 174 22
a 174 127
a 174 128
a 174 161
a 174 164
a 174 250
a 174 255
a 174 25
a 174 256
a 174 266
a 174 323
a 174 407
a 174 267
a 174 268
a 174 27
a 174 269
a 174 272
a 174 110
a 174 273
a 174 275
a 174 31
a 174 169
a 174 277
a 174 278
a 174 279
a 174 280
a 174 281
a 174 330
a 174 283
a 174 32
a 174 34
a 174 284
a 174 416
a 174 417
a 174 170
a 174 465
a 174 285
a 174 466
a 174 372
a 174 286
a 174 288
a 174 289
a 174 290
a 174 373
a 174 420
a 174 421
a 174 422
a 174 468
a 174 423
a 174 291
a 174 292
a 174 111
a 174 293
a 174 294
a 174 296
a 174 297
a 174 171
a 174 299
a 174 38
a 174 300
a 174 172
a 174 301
a 174 302
a 174 303
a 174 471
a 174 305
a 174 173
a 174 306
a 174 307
a 174 427
a 174 144
a 174 318
a 174 84
a 174 10
a 174 102
a 174 104
a 174 12
a 174 105
a 174 232
a 174 134
a 174 16
a 174 162
a 174 460
a 174 261
a 174 263
a 174 264
a 174 406
a 174 265
a 174 363
a 174 271
a 174 28
a 174 274
a 174 30
a 174 167
a 174 287
a 174 394
a 174 429
a 174 112
a 174 175
a 174 375
a 174 430
a 174 309
a 174 40
a 174 41
a 174 113
a 174 42
a 174 44
a 174 46
a 174 114
a 174 47
a 174 48
a 174 49
a 174 115
a 174 50
a 174 51
a 174 52
a 174 53
a 174 54
a 174 55
a 174 181
a 174 56
a 174 57
a 174 58
a 174 59
a 174 60
a 174 99
a 174 183
a 174 61
a 174 396
a 174 62
a 174 184
a 174 63
a 174 185
a 174 428
a 174 308
a 174 136
a 174 43
a 174 180
a 174 434
a 174 311
a 174 182
a 174 312
a 174 116
a 175 3
a 175 6
a 175 317
a 175 186
a 175 188
a 175 189
a 175 332
a 175 190
a 175 193
a 175 196
a 175 197
a 175 198
a 175 199
a 175 205
a 175 340
a 175 148
a 175 342
a 175 344
a 175 217
a 175 346
a 175 64
a 175 68
a 175 81
a 175 126
a 175 95
a 175 151
a 175 218
a 175 220
a 175 221
a 175 104
a 175 229
a 175 230
a 175 141
a 175 142
a 175 107
a 175 234
a 175 15
a 175 133
a 175 404
a 175 17
a 175 20
a 175 236
a 175 239
a 175 97
a 175 108
a 175 98
a 175 143
a 175 240
a 175 21
a 175 22
a 175 127
a 175 128
a 175 249
a 175 250
a 175 255
a 175 256
a 175 265
a 175 266
a 175 267
a 175 268
a 175 27
a 175 269
a 175 271
a 175 272
a 175 273
a 175 275
a 175 276
a 175 168
a 175 31
a 175 277
a 175 278
a 175 279
a 175 280
a 175 281
a 175 283
a 175 32
a 175 34
a 175 284
a 175 416
a 175 417
a 175 170
a 175 285
a 175 286
a 175 287
a 175 288
a 175 289
a 175 290
a 175 422
a 175 292
a 175 111
a 175 293
a 175 294
a 175 296
a 175 297
a 175 37
a 175 299
a 175 38
a 175 300
a 175 172
a 175 301
a 175 302
a 175 303
a 175 305
a 175 306
a 175 307
a 175 394
a 175 174
a 175 112
a 175 119
a 175 7
a 175 84
a 175 10
a 175 102
a 175 12
a 175 105
a 175 232
a 175 154
a 175 106
a 175 157
a 175 14
a 175 134
a 175 16
a 175 159
a 175 162
a 175 164
a 175 251
a 175 322
a 175 460
a 175 261
a 175 263
a 175 406
a 175 363
a 175 110
a 175 28
a 175 274
a 175 367
a 175 167
a 175 429
a 175 375
a 175 430
a 175 135
a 175 179
a 175 136
a 175 39
a 175 309
a 175 40
a 175 41
a 175 113
a 175 42
a 175 44
a 175 46
a 175 114
a 175 47
a 175 48
a 175 49
a 175 115
a 175 50
a 175 51
a 175 52
a 175 53
a 175 54
a 175 55
a 175 181
a 175 56
a 175 57
a 175 58
a 175 59
a 175 60
a 175 99
a 175 183
a 175 61
a 175 396
a 175 62
a 175 184
a 175 63
a 175 185
a 175 308
a 175 180
a 175 434
a 175 311
a 175 182
a 175 312
a 175 116
a 175 436
a 176 3
a 176 6
a 176 317
a 176 186
a 176 188
a 176 189
a 176 332
a 176 193
a 176 196
a 176 197
a 176 198
a 176 199
a 176 205
a 176 340
a 176 148
a 176 344
a 176 217
a 176 346
a 176 64
a 176 68
a 176 126
a 176 95
a 176 151
a 176 218
a 176 220
a 176 141
a 176 142
a 176 107
a 176 234
a 176 15
a 176 133
a 176 17
a 176 20
a 176 236
a 176 239
a 176 97
a 176 108
a 176 98
a 176 143
a 176 240
a 176 21
a 176 22
a 176 127
a 176 128
a 176 250
a 176 255
a 176 256
a 176 266
a 176 267
a 176 268
a 176 27
a 176 269
a 176 273
a 176 275
a 176 31
a 176 277
a 176 278
a 176 279
a 176 280
a 176 281
a 176 34
a 176 284
a 176 417
a 176 170
a 176 285
a 176 286
a 176 288
a 176 289
a 176 290
a 176 111
a 176 293
a 176 294
a 176 296
a 176 297
a 176 299
a 176 38
a 176 300
a 176 172
a 176 301
a 176 302
a 176 307
a 176 112
a 176 318
a 176 84
a 176 10
a 176 102
a 176 12
a 176 106
a 176 16
a 176 162
a 176 251
a 176 253
a 176 322
a 176 25
a 176 460
a 176 261
a 176 263
a 176 264
a 176 406
a 176 323
a 176 363
a 176 271
a 176 110
a 176 28
a 176 274
a 176 167
a 176 368
a 176 371
a 176 394
a 176 375
a 176 430
a 176 309
a 176 41
a 176 113
a 176 42
a 176 43
a 176 44
a 176 46
a 176 114
a 176 47
a 176 48
a 176 49
a 176 115
a 176 50
a 176 51
a 176 52
a 176 53
a 176 54
a 176 55
a 176 181
a 176 56
a 176 57
a 176 58
a 176 59
a 176 60
a 176 99
a 176 61
a 176 62
a 176 63
a 176 185
a 176 308
a 176 40
a 176 180
a 176 434
a 176 311
a 176 182
a 176 312
a 176 116
a 176 183
a 176 436
a 176 184
a 135 3
a 135 100
a 135 137
a 135 6
a 135 318
a 135 317
a 135 186
a 135 187
a 135 188
a 135 189
a 135 332
a 135 190
a 135 193
a 135 194
a 135 196
a 135 197
a 135 198
a 135 199
a 135 200
a 135 201
a 135 202
a 135 203
a 135 205
a 135 340
a 135 148
a 135 395
a 135 342
a 135 212
a 135 213
a 135 214
a 135 344
a 135 216
a 135 217
a 135 346
a 135 348
a 135 64
a 135 65
a 135 68
a 135 70
a 135 74
a 135 80
a 135 81
a 135 84
a 135 86
a 135 126
a 135 95
a 135 102
a 135 151
a 135 218
a 135 377
a 135 11
a 135 220
a 135 153
a 135 221
a 135 104
a 135 223
a 135 12
a 135 229
a 135 230
a 135 398
a 135 141
a 135 142
a 135 154
a 135 155
a 135 107
a 135 234
a 135 14
a 135 15
a 135 403
a 135 133
a 135 134
a 135 16
a 135 404
a 135 17
a 135 18
a 135 19
a 135 96
a 135 235
a 135 20
a 135 236
a 135 239
a 135 97
a 135 108
a 135 98
a 135 143
a 135 240
a 135 21
a 135 22
a 135 127
a 135 128
a 135 23
a 135 392
a 135 243
a 135 459
a 135 164
a 135 109
a 135 249
a 135 250
a 135 251
a 135 253
a 135 255
a 135 256
a 135 265
a 135 266
a 135 129
a 135 407
a 135 267
a 135 268
a 135 27
a 135 269
a 135 270
a 135 271
a 135 272
a 135 110
a 135 28
a 135 273
a 135 274
a 135 30
a 135 275
a 135 167
a 135 276
a 135 168
a 135 31
a 135 277
a 135 409
a 135 326
a 135 328
a 135 278
a 135 368
a 135 279
a 135 329
a 135 384
a 135 412
a 135 370
a 135 280
a 135 281
a 135 282
a 135 330
a 135 283
a 135 32
a 135 34
a 135 284
a 135 416
a 135 417
a 135 418
a 135 170
a 135 285
a 135 372
a 135 286
a 135 287
a 135 288
a 135 289
a 135 290
a 135 331
a 135 419
a 135 422
a 135 291
a 135 292
a 135 111
a 135 293
a 135 294
a 135 295
a 135 296
a 135 297
a 135 37
a 135 299
a 135 38
a 135 300
a 135 172
a 135 301
a 135 302
a 135 303
a 135 304
a 135 471
a 135 305
a 135 173
a 135 306
a 135 307
a 135 427
a 135 144
a 135 394
a 135 428
a 135 112
a 135 175
a 135 308
a 135 473
a 135 119
a 135 66
a 135 138
a 135 10
a 135 397
a 135 390
a 135 441
a 135 477
a 135 378
a 135 139
a 135 103
a 135 444
a 135 219
a 135 446
a 135 391
a 135 222
a 135 225
a 135 228
a 135 381
a 135 13
a 135 105
a 135 232
a 135 106
a 135 158
a 135 159
a 135 455
a 135 237
a 135 161
a 135 321
a 135 26
a 135 460
a 135 263
a 135 264
a 135 406
a 135 363
a 135 366
a 135 415
a 135 171
a 135 429
a 135 177
a 135 179
a 135 136
a 135 432
a 135 309
a 135 40
a 135 41
a 135 113
a 135 42
a 135 43
a 135 44
a 135 46
a 135 114
a 135 47
a 135 48
a 135 49
a 135 115
a 135 50
a 135 51
a 135 52
a 135 53
a 135 54
a 135 55
a 135 181
a 135 56
a 135 57
a 135 58
a 135 59
a 135 60
a 135 99
a 135 183
a 135 61
a 135 396
a 135 62
a 135 184
a 135 63
a 135 185
a 135 178
a 135 180
a 135 434
a 135 435
a 135 311
a 135 182
a 135 312
a 135 116
a 135 436
a 177 3
a 177 6
a 177 317
a 177 186
a 177 188
a 177 189
a 177 332
a 177 190
a 177 193
a 177 196
a 177 197
a 177 198
a 177 199
a 177 205
a 177 340
a 177 148
a 177 342
a 177 344
a 177 217
a 177 346
a 177 64
a 177 68
a 177 81
a 177 126
a 177 95
a 177 151
a 177 218
a 177 220
a 177 221
a 177 104
a 177 12
a 177 229
a 177 141
a 177 142
a 177 107
a 177 234
a 177 15
a 177 403
a 177 133
a 177 134
a 177 404
a 177 17
a 177 20
a 177 236
a 177 239
a 177 97
a 177 108
a 177 98
a 177 143
a 177 240
a 177 21
a 177 22
a 177 127
a 177 128
a 177 250
a 177 255
a 177 256
a 177 265
a 177 266
a 177 267
a 177 268
a 177 27
a 177 269
a 177 271
a 177 273
a 177 275
a 177 276
a 177 168
a 177 31
a 177 277
a 177 278
a 177 279
a 177 280
a 177 281
a 177 283
a 177 34
a 177 284
a 177 416
a 177 417
a 177 170
a 177 285
a 177 286
a 177 287
a 177 288
a 177 289
a 177 290
a 177 292
a 177 111
a 177 293
a 177 294
a 177 296
a 177 297
a 177 37
a 177 299
a 177 38
a 177 300
a 177 172
a 177 301
a 177 302
a 177 305
a 177 306
a 177 307
a 177 394
a 177 112
a 177 308
a 177 135
a 177 132
a 177 7
a 177 10
a 177 101
a 177 102
a 177 397
a 177 441
a 177 106
a 177 16
a 177 237
a 177 359
a 177 253
a 177 24
a 177 322
a 177 25
a 177 261
a 177 263
a 177 264
a 177 363
a 177 110
a 177 366
a 177 30
a 177 167
a 177 375
a 177 178
a 177 179
a 177 136
a 177 40
a 177 41
a 177 113
a 177 42
a 177 43
a 177 44
a 177 46
a 177 114
a 177 47
a 177 48
a 177 49
a 177 115
a 177 50
a 177 51
a 177 52
a 177 53
a 177 54
a 177 55
a 177 181
a 177 56
a 177 57
a 177 58
a 177 59
a 177 60
a 177 99
a 177 61
a 177 396
a 177 62
a 177 63
a 177 185
a 177 39
a 177 309
a 177 180
a 177 434
a 177 311
a 177 182
a 177 312
a 177 116
a 177 183
a 177 476
a 177 436
a 177 184
a 179 3
a 179 6
a 179 318
a 179 317
a 179 7
a 179 186
a 179 188
a 179 189
a 179 332
a 179 190
a 179 193
a 179 196
a 179 197
a 179 198
a 179 199
a 179 205
a 179 340
a 179 148
a 179 344
a 179 217
a 179 346
a 179 64
a 179 65
a 179 66
a 179 68
a 179 70
a 179 73
a 179 78
a 179 81
a 179 82
a 179 84
a 179 86
a 179 126
a 179 95
a 179 151
a 179 218
a 179 377
a 179 219
a 179 220
a 179 350
a 179 104
a 179 12
a 179 229
a 179 230
a 179 141
a 179 142
a 179 154
a 179 155
a 179 107
a 179 234
a 179 14
a 179 15
a 179 403
a 179 133
a 179 134
a 179 16
a 179 159
a 179 404
a 179 405
a 179 17
a 179 20
a 179 236
a 179 239
a 179 97
a 179 108
a 179 98
a 179 143
a 179 240
a 179 21
a 179 22
a 179 127
a 179 128
a 179 243
a 179 164
a 179 109
a 179 249
a 179 250
a 179 255
a 179 256
a 179 264
a 179 265
a 179 129
a 179 267
a 179 268
a 179 27
a 179 269
a 179 271
a 179 272
a 179 110
a 179 28
a 179 273
a 179 274
a 179 30
a 179 275
a 179 167
a 179 276
a 179 168
a 179 31
a 179 277
a 179 409
a 179 278
a 179 279
a 179 280
a 179 281
a 179 282
a 179 283
a 179 34
a 179 284
a 179 285
a 179 286
a 179 287
a 179 288
a 179 289
a 179 290
a 179 422
a 179 291
a 179 292
a 179 111
a 179 293
a 179 294
a 179 295
a 179 296
a 179 297
a 179 37
a 179 299
a 179 38
a 179 300
a 179 172
a 179 301
a 179 302
a 179 304
a 179 305
a 179 306
a 179 307
a 179 427
a 179 144
a 179 394
a 179 112
a 179 175
a 179 308
a 179 135
a 179 177
a 179 178
a 179 10
a 179 102
a 179 397
a 179 441
a 179 237
a 179 253
a 179 322
a 179 25
a 179 263
a 179 406
a 179 136
a 179 432
a 179 40
a 179 41
a 179 113
a 179 42
a 179 44
a 179 46
a 179 114
a 179 47
a 179 49
a 179 50
a 179 51
a 179 52
a 179 53
a 179 54
a 179 55
a 179 181
a 179 56
a 179 57
a 179 58
a 179 59
a 179 60
a 179 99
a 179 61
a 179 396
a 179 62
a 179 63
a 179 185
a 179 43
a 179 45
a 179 180
a 179 48
a 179 115
a 179 434
a 179 435
a 179 182
a 179 312
a 179 116
a 179 183
a 179 385
a 179 476
a 179 436
a 179 184
a 136 3
a 136 100
a 136 6
a 136 318
a 136 317
a 136 7
a 136 186
a 136 188
a 136 189
a 136 332
a 136 190
a 136 193
a 136 194
a 136 196
a 136 197
a 136 198
a 136 199
a 136 205
a 136 340
a 136 148
a 136 342
a 136 213
a 136 344
a 136 217
a 136 346
a 136 348
a 136 64
a 136 65
a 136 66
a 136 123
a 136 124
a 136 68
a 136 69
a 136 70
a 136 73
a 136 78
a 136 81
a 136 82
a 136 83
a 136 84
a 136 86
a 136 10
a 136 126
a 136 95
a 136 102
a 136 151
a 136 218
a 136 377
a 136 444
a 136 219
a 136 220
a 136 350
a 136 446
a 136 391
a 136 104
a 136 223
a 136 225
a 136 12
a 136 229
a 136 230
a 136 399
a 136 402
a 136 141
a 136 142
a 136 154
a 136 155
a 136 106
a 136 158
a 136 107
a 136 234
a 136 14
a 136 15
a 136 403
a 136 133
a 136 134
a 136 484
a 136 16
a 136 159
a 136 404
a 136 405
a 136 453
a 136 17
a 136 18
a 136 235
a 136 20
a 136 236
a 136 239
a 136 97
a 136 108
a 136 98
a 136 143
a 136 240
a 136 21
a 136 241
a 136 242
a 136 22
a 136 127
a 136 128
a 136 243
a 136 459
a 136 164
a 136 109
a 136 248
a 136 249
a 136 250
a 136 252
a 136 253
a 136 255
a 136 256
a 136 26
a 136 264
a 136 265
a 136 266
a 136 129
a 136 407
a 136 267
a 136 268
a 136 27
a 136 269
a 136 271
a 136 272
a 136 110
a 136 28
a 136 273
a 136 274
a 136 366
a 136 30
a 136 275
a 136 167
a 136 276
a 136 168
a 136 31
a 136 169
a 136 277
a 136 325
a 136 409
a 136 278
a 136 368
a 136 279
a 136 329
a 136 280
a 136 281
a 136 282
a 136 283
a 136 34
a 136 284
a 136 416
a 136 417
a 136 170
a 136 285
a 136 286
a 136 287
a 136 288
a 136 289
a 136 290
a 136 422
a 136 291
a 136 292
a 136 111
a 136 293
a 136 294
a 136 295
a 136 296
a 136 297
a 136 37
a 136 299
a 136 38
a 136 300
a 136 172
a 136 301
a 136 302
a 136 304
a 136 305
a 136 306
a 136 307
a 136 427
a 136 144
a 136 394
a 136 428
a 136 112
a 136 175
a 136 308
a 136 135
a 136 177
a 136 178
a 136 179
a 136 397
a 136 452
a 136 96
a 136 352
a 136 455
a 136 322
a 136 25
a 136 460
a 136 263
a 136 406
a 136 363
a 136 174
a 136 309
a 136 41
a 136 113
a 136 42
a 136 43
a 136 44
a 136 46
a 136 114
a 136 47
a 136 48
a 136 49
a 136 115
a 136 50
a 136 51
a 136 52
a 136 53
a 136 54
a 136 55
a 136 181
a 136 56
a 136 57
a 136 58
a 136 59
a 136 60
a 136 99
a 136 61
a 136 62
a 136 63
a 136 185
a 136 40
a 136 45
a 136 180
a 136 434
a 136 435
a 136 182
a 136 312
a 136 116
a 136 183
a 136 396
a 136 385
a 136 476
a 136 436
a 136 184
a 77 4
a 77 147
a 77 137
a 77 6
a 77 75
a 77 5
a 77 3
a 77 1
a 77 100
a 77 119
a 77 120
a 77 146
a 77 132
a 77 318
a 77 7
a 77 8
a 77 148
a 77 64
a 77 66
a 77 382
a 77 67
a 77 125
a 77 70
a 77 71
a 77 74
a 77 78
a 77 79
a 77 80
a 77 83
a 77 86
a 77 87
a 77 10
a 77 88
a 77 89
a 77 90
a 77 91
a 77 101
a 77 93
a 77 95
a 77 103
a 77 152
a 77 105
a 77 154
a 77 155
a 77 106
a 77 107
a 77 134
a 77 16
a 77 17
a 77 18
a 77 20
a 77 97
a 77 108
a 77 98
a 77 320
a 77 143
a 77 21
a 77 22
a 77 127
a 77 128
a 77 23
a 77 164
a 77 109
a 77 253
a 77 255
a 77 129
a 77 130
a 77 367
a 77 384
a 77 32
a 77 34
a 77 38
a 77 112
a 77 41
a 77 113
a 77 42
a 77 43
a 77 44
a 77 46
a 77 114
a 77 47
a 77 48
a 77 49
a 77 115
a 77 50
a 77 51
a 77 52
a 77 53
a 77 54
a 77 55
a 77 181
a 77 56
a 77 57
a 77 58
a 77 59
a 77 60
a 77 61
a 77 62
a 77 184
a 77 63
a 77 185
a 77 99
a 77 182
a 77 116
a 77 183
a 163 4
a 163 137
a 163 6
a 163 317
a 163 186
a 163 193
a 163 340
a 163 148
a 163 217
a 163 64
a 163 68
a 163 151
a 163 220
a 163 221
a 163 104
a 163 141
a 163 142
a 163 17
a 163 18
a 163 236
a 163 237
a 163 97
a 163 21
a 163 22
a 163 127
a 163 128
a 163 243
a 163 162
a 163 10
a 163 390
a 163 378
a 163 139
a 163 219
a 163 222
a 163 12
a 163 233
a 163 155
a 163 107
a 163 16
a 163 98
a 163 320
a 163 392
a 163 271
a 163 110
a 163 28
a 163 273
a 163 34
a 163 432
a 163 41
a 163 42
a 163 46
a 163 114
a 163 47
a 163 49
a 163 50
a 163 51
a 163 53
a 163 54
a 163 55
a 163 181
a 163 56
a 163 57
a 163 58
a 163 59
a 163 60
a 163 61
a 163 62
a 163 63
a 163 185
a 163 244
a 163 255
a 163 260
a 163 263
a 163 264
a 163 277
a 163 280
a 163 284
a 163 294
a 163 299
a 163 38
a 163 300
a 163 172
a 163 301
a 163 44
a 163 115
a 163 52
a 163 434
a 163 311
a 163 99
a 163 182
a 163 312
a 163 183
a 117 2
a 117 5
a 117 3
a 117 4
a 117 6
a 117 7
a 117 8
a 117 9
a 117 10
a 117 12
a 117 14
a 117 15
a 117 16
a 117 17
a 117 18
a 117 19
a 117 20
a 117 21
a 117 22
a 117 24
a 117 25
a 117 26
a 117 27
a 117 28
a 117 30
a 117 31
a 117 32
a 117 33
a 117 34
a 117 35
a 117 36
a 117 37
a 117 38
a 117 39
a 117 40
a 117 41
a 117 42
a 117 43
a 117 44
a 117 45
a 117 46
a 117 47
a 117 48
a 117 49
a 117 50
a 117 51
a 117 53
a 117 54
a 117 56
a 117 57
a 117 58
a 117 59
a 117 60
a 117 61
a 117 62
a 117 63
a 117 66
a 117 74
a 117 78
a 117 89
a 117 90
a 117 91
a 117 93
a 117 151
a 117 397
a 117 218
a 117 390
a 117 377
a 117 477
a 117 378
a 117 442
a 117 11
a 117 139
a 117 103
a 117 443
a 117 444
a 117 219
a 117 220
a 117 386
a 117 350
a 117 152
a 117 153
a 117 445
a 117 391
a 117 141
a 117 155
a 117 239
a 117 127
a 117 128
a 117 164
a 117 252
a 117 394
a 117 432
a 8 117
a 8 1
a 8 100
a 8 118
a 8 119
a 8 120
a 8 146
a 8 132
a 8 121
a 8 147
a 8 6
a 8 317
a 8 7
a 8 318
a 8 148
a 8 80
a 8 10
a 8 102
a 8 151
a 8 104
a 8 232
a 8 155
a 8 106
a 8 16
a 8 17
a 8 319
a 8 235
a 8 20
a 8 320
a 8 21
a 8 22
a 8 127
a 8 23
a 8 164
a 8 246
a 8 253
a 8 255
a 8 256
a 8 26
a 8 263
a 8 265
a 8 323
a 8 267
a 8 269
a 8 271
a 8 30
a 8 168
a 8 277
a 8 325
a 8 409
a 8 326
a 8 327
a 8 328
a 8 281
a 8 282
a 8 330
a 8 283
a 8 32
a 8 288
a 8 289
a 8 331
a 8 35
a 8 36
a 8 38
a 8 304
a 8 40
a 8 41
a 8 113
a 8 42
a 8 43
a 8 44
a 8 45
a 8 46
a 8 114
a 8 47
a 8 48
a 8 49
a 8 115
a 8 50
a 8 51
a 8 52
a 8 53
a 8 54
a 8 55
a 8 181
a 8 56
a 8 57
a 8 58
a 8 59
a 8 60
a 8 99
a 8 61
a 8 62
a 8 184
a 8 63
a 8 185
a 8 64
a 8 65
a 8 123
a 8 74
a 8 77
a 8 78
a 8 349
a 8 140
a 8 141
a 8 142
a 8 18
a 8 19
a 8 352
a 8 236
a 8 237
a 8 239
a 8 97
a 8 108
a 8 98
a 8 143
a 8 240
a 8 241
a 8 242
a 8 485
a 8 128
a 8 392
a 8 244
a 8 356
a 8 165
a 8 24
a 8 254
a 8 360
a 8 322
a 8 361
a 8 25
a 8 362
a 8 261
a 8 270
a 8 110
a 8 366
a 8 167
a 8 285
a 8 372
a 18 117
a 18 1
a 18 100
a 18 131
a 18 119
a 18 145
a 18 120
a 18 146
a 18 132
a 18 121
a 18 147
a 18 137
a 18 6
a 18 314
a 18 315
a 18 316
a 18 318
a 18 317
a 18 7
a 18 186
a 18 187
a 18 188
a 18 189
a 18 332
a 18 192
a 18 193
a 18 194
a 18 195
a 18 196
a 18 197
a 18 198
a 18 203
a 18 204
a 18 205
a 18 206
a 18 207
a 18 208
a 18 209
a 18 339
a 18 71
a 18 74
a 18 77
a 18 78
a 18 83
a 18 88
a 18 91
a 18 218
a 18 139
a 18 221
a 18 104
a 18 223
a 18 224
a 18 140
a 18 141
a 18 142
a 18 17
a 18 8
a 18 148
a 18 215
a 18 64
a 18 66
a 18 80
a 18 84
a 18 85
a 18 10
a 18 90
a 18 101
a 18 93
a 18 102
a 18 152
a 18 12
a 18 105
a 18 232
a 18 154
a 18 155
a 18 106
a 18 107
a 18 14
a 18 133
a 18 134
a 18 16
a 18 351
a 18 19
a 18 319
a 18 235
a 18 455
a 18 20
a 18 236
a 18 97
a 18 108
a 18 320
a 18 240
a 18 21
a 18 22
a 18 127
a 18 128
a 18 163
a 18 164
a 18 166
a 18 253
a 18 24
a 18 255
a 18 361
a 18 256
a 18 460
a 18 362
a 18 257
a 18 258
a 18 259
a 18 260
a 18 261
a 18 406
a 18 265
a 18 129
a 18 324
a 18 271
a 18 275
a 18 367
a 18 167
a 18 279
a 18 280
a 18 281
a 18 282
a 18 283
a 18 32
a 18 34
a 18 285
a 18 287
a 18 288
a 18 467
a 18 35
a 18 111
a 18 38
a 18 307
a 18 394
a 18 429
a 18 112
a 18 135
a 18 136
a 18 41
a 18 113
a 18 42
a 18 43
a 18 44
a 18 45
a 18 46
a 18 114
a 18 47
a 18 48
a 18 49
a 18 115
a 18 50
a 18 51
a 18 52
a 18 53
a 18 54
a 18 55
a 18 181
a 18 56
a 18 57
a 18 58
a 18 59
a 18 60
a 18 99
a 18 183
a 18 61
a 18 62
a 18 184
a 18 63
a 18 185
a 18 96
a 18 352
a 18 237
a 18 238
a 18 239
a 18 98
a 18 143
a 18 241
a 18 485
a 18 268
a 18 310
a 18 312
a 24 117
a 24 1
a 24 100
a 24 118
a 24 119
a 24 120
a 24 146
a 24 132
a 24 121
a 24 147
a 24 318
a 24 7
a 24 186
a 24 187
a 24 188
a 24 189
a 24 332
a 24 190
a 24 191
a 24 192
a 24 193
a 24 194
a 24 195
a 24 196
a 24 333
a 24 197
a 24 198
a 24 199
a 24 200
a 24 201
a 24 203
a 24 204
a 24 206
a 24 338
a 24 207
a 24 208
a 24 209
a 24 339
a 24 340
a 24 148
a 24 341
a 24 9
a 24 395
a 24 342
a 24 438
a 24 210
a 24 211
a 24 212
a 24 213
a 24 214
a 24 215
a 24 344
a 24 216
a 24 345
a 24 346
a 24 349
a 24 12
a 24 140
a 24 141
a 24 233
a 24 154
a 24 107
a 24 17
a 24 18
a 24 19
a 24 96
a 24 20
a 24 236
a 24 237
a 24 97
a 24 108
a 24 143
a 24 240
a 24 21
a 24 241
a 24 242
a 24 127
a 24 128
a 24 164
a 24 109
a 24 244
a 24 245
a 24 354
a 24 246
a 24 355
a 24 356
a 24 357
a 24 358
a 24 247
a 24 165
a 24 248
a 24 249
a 24 250
a 24 166
a 24 359
a 24 251
a 24 252
a 24 253
a 24 314
a 24 316
a 24 317
a 24 8
a 24 10
a 24 102
a 24 104
a 24 228
a 24 142
a 24 155
a 24 16
a 24 319
a 24 235
a 24 320
a 24 22
a 24 23
a 24 322
a 24 255
a 24 256
a 24 26
a 24 460
a 24 265
a 24 324
a 24 267
a 24 271
a 24 30
a 24 167
a 24 168
a 24 277
a 24 325
a 24 326
a 24 327
a 24 328
a 24 282
a 24 283
a 24 32
a 24 34
a 24 38
a 24 394
a 24 40
a 24 41
a 24 113
a 24 42
a 24 43
a 24 44
a 24 46
a 24 114
a 24 47
a 24 48
a 24 49
a 24 115
a 24 50
a 24 51
a 24 52
a 24 53
a 24 54
a 24 55
a 24 181
a 24 56
a 24 57
a 24 58
a 24 59
a 24 60
a 24 99
a 24 61
a 24 62
a 24 184
a 24 63
a 24 185
a 24 254
a 24 360
a 24 361
a 24 25
a 24 362
a 24 268
a 24 269
a 24 270
a 24 366
a 24 330
a 24 467
a 24 373
a 24 292
a 24 36
a 24 428
a 24 177
a 24 178
a 131 100
a 131 4
a 131 6
a 131 7
a 131 9
a 131 152
a 131 153
a 131 13
a 131 155
a 131 17
a 131 18
a 131 19
a 131 20
a 131 21
a 131 22
a 131 128
a 131 28
a 131 31
a 131 33
a 131 36
a 131 38
a 131 41
a 131 42
a 131 43
a 131 45
a 131 46
a 131 47
a 131 48
a 131 49
a 131 50
a 131 53
a 131 54
a 131 56
a 131 58
a 131 59
a 131 60
a 131 61
a 131 186
a 131 187
a 131 188
a 131 189
a 131 190
a 131 192
a 131 193
a 131 194
a 131 195
a 131 196
a 131 197
a 131 198
a 131 199
a 131 200
a 131 201
a 131 203
a 131 204
a 131 205
a 131 206
a 131 207
a 131 208
a 131 209
a 131 212
a 131 44
a 131 115
a 131 310
a 131 184
a 132 100
a 132 4
a 132 147
a 132 6
a 132 7
a 132 8
a 132 9
a 132 17
a 132 18
a 132 19
a 132 21
a 132 22
a 132 24
a 132 28
a 132 31
a 132 41
a 132 42
a 132 43
a 132 46
a 132 47
a 132 49
a 132 50
a 132 53
a 132 54
a 132 56
a 132 58
a 132 59
a 132 60
a 132 61
a 132 65
a 132 123
a 132 67
a 132 69
a 132 70
a 132 71
a 132 72
a 132 73
a 132 74
a 132 75
a 132 76
a 132 77
a 132 78
a 132 80
a 132 82
a 132 84
a 132 85
a 132 387
a 132 86
a 132 88
a 132 89
a 132 90
a 132 91
a 132 101
a 132 92
a 132 93
a 132 94
a 132 95
a 132 151
a 132 218
a 132 350
a 132 12
a 132 96
a 132 352
a 132 20
a 132 236
a 132 97
a 132 108
a 132 98
a 132 320
a 132 143
a 132 240
a 132 128
a 132 253
a 132 32
a 132 372
a 132 112
a 132 177
a 132 39
a 132 40
a 128 100
a 128 131
a 128 118
a 128 147
a 128 6
a 128 317
a 128 7
a 128 186
a 128 187
a 128 188
a 128 189
a 128 332
a 128 190
a 128 191
a 128 192
a 128 193
a 128 194
a 128 195
a 128 196
a 128 333
a 128 197
a 128 198
a 128 199
a 128 200
a 128 334
a 128 201
a 128 202
a 128 336
a 128 203
a 128 204
a 128 205
a 128 206
a 128 337
a 128 338
a 128 207
a 128 208
a 128 209
a 128 339
a 128 340
a 128 148
a 128 341
a 128 9
a 128 395
a 128 342
a 128 438
a 128 210
a 128 211
a 128 212
a 128 213
a 128 343
a 128 214
a 128 215
a 128 344
a 128 216
a 128 345
a 128 217
a 128 346
a 128 439
a 128 149
a 128 347
a 128 348
a 128 64
a 128 65
a 128 66
a 128 382
a 128 122
a 128 123
a 128 67
a 128 124
a 128 68
a 128 125
a 128 69
a 128 70
a 128 71
a 128 72
a 128 383
a 128 73
a 128 74
a 128 75
a 128 76
a 128 77
a 128 78
a 128 79
a 128 80
a 128 81
a 128 82
a 128 83
a 128 84
a 128 85
a 128 387
a 128 86
a 128 138
a 128 10
a 128 126
a 128 88
a 128 89
a 128 90
a 128 91
a 128 101
a 128 92
a 128 93
a 128 440
a 128 94
a 128 95
a 128 102
a 128 150
a 128 388
a 128 389
a 128 151
a 128 397
a 128 218
a 128 390
a 128 377
a 128 441
a 128 349
a 128 477
a 128 378
a 128 442
a 128 11
a 128 139
a 128 103
a 128 443
a 128 444
a 128 219
a 128 220
a 128 386
a 128 350
a 128 152
a 128 153
a 128 446
a 128 391
a 128 221
a 128 104
a 128 222
a 128 379
a 128 223
a 128 224
a 128 225
a 128 226
a 128 227
a 128 381
a 128 12
a 128 13
a 128 229
a 128 447
a 128 448
a 128 230
a 128 398
a 128 231
a 128 449
a 128 399
a 128 400
a 128 401
a 128 402
a 128 450
a 128 451
a 128 140
a 128 141
a 128 142
a 128 105
a 128 232
a 128 233
a 128 154
a 128 155
a 128 106
a 128 156
a 128 157
a 128 158
a 128 107
a 128 234
a 128 14
a 128 15
a 128 403
a 128 133
a 128 134
a 128 484
a 128 16
a 128 159
a 128 404
a 128 160
a 128 405
a 128 452
a 128 453
a 128 454
a 128 17
a 128 18
a 128 19
a 128 319
a 128 96
a 128 235
a 128 352
a 128 20
a 128 236
a 128 237
a 128 238
a 128 239
a 128 97
a 128 108
a 128 98
a 128 320
a 128 143
a 128 240
a 128 21
a 128 241
a 128 242
a 128 22
a 128 353
a 128 485
a 128 127
a 128 2
a 128 3
a 128 117
a 128 119
a 128 132
a 128 314
a 128 316
a 128 318
a 128 8
a 128 483
a 128 228
a 128 455
a 128 23
a 128 392
a 128 161
a 128 162
a 128 163
a 128 164
a 128 109
a 128 244
a 128 247
a 128 165
a 128 321
a 128 251
a 128 252
a 128 253
a 128 24
a 128 254
a 128 322
a 128 255
a 128 256
a 128 26
a 128 460
a 128 362
a 128 257
a 128 258
a 128 259
a 128 260
a 128 261
a 128 263
a 128 264
a 128 406
a 128 265
a 128 266
a 128 323
a 128 363
a 128 461
a 128 129
a 128 324
a 128 267
a 128 27
a 128 271
a 128 272
a 128 130
a 128 110
a 128 28
a 128 273
a 128 274
a 128 366
a 128 30
a 128 275
a 128 367
a 128 167
a 128 168
a 128 169
a 128 326
a 128 327
a 128 278
a 128 279
a 128 329
a 128 384
a 128 412
a 128 414
a 128 370
a 128 280
a 128 281
a 128 282
a 128 330
a 128 371
a 128 283
a 128 415
a 128 32
a 128 33
a 128 34
a 128 170
a 128 285
a 128 286
a 128 287
a 128 288
a 128 289
a 128 290
a 128 419
a 128 422
a 128 35
a 128 291
a 128 292
a 128 111
a 128 294
a 128 296
a 128 297
a 128 36
a 128 37
a 128 171
a 128 38
a 128 172
a 128 301
a 128 471
a 128 307
a 128 144
a 128 394
a 128 174
a 128 428
a 128 429
a 128 112
a 128 175
a 128 375
a 128 176
a 128 430
a 128 308
a 128 135
a 128 177
a 128 178
a 128 179
a 128 136
a 128 432
a 128 39
a 128 309
a 128 40
a 128 41
a 128 113
a 128 42
a 128 43
a 128 44
a 128 45
a 128 180
a 128 46
a 128 114
a 128 47
a 128 48
a 128 49
a 128 115
a 128 50
a 128 51
a 128 52
a 128 53
a 128 54
a 128 55
a 128 181
a 128 56
a 128 57
a 128 58
a 128 59
a 128 60
a 128 99
a 128 183
a 128 61
a 128 396
a 128 62
a 128 184
a 128 63
a 128 185
a 128 456
a 128 243
a 128 457
a 128 459
a 128 246
a 128 356
a 128 250
a 128 359
a 128 360
a 128 25
a 128 262
a 128 364
a 128 365
a 128 407
a 128 268
a 128 269
a 128 408
a 128 462
a 128 270
a 128 463
a 128 29
a 128 464
a 128 276
a 128 31
a 128 277
a 128 325
a 128 409
a 128 410
a 128 328
a 128 368
a 128 411
a 128 413
a 128 284
a 128 416
a 128 417
a 128 418
a 128 393
a 128 465
a 128 466
a 128 372
a 128 331
a 128 467
a 128 373
a 128 420
a 128 421
a 128 468
a 128 469
a 128 423
a 128 424
a 128 293
a 128 295
a 128 470
a 128 425
a 128 298
a 128 426
a 128 299
a 128 300
a 128 302
a 128 303
a 128 304
a 128 472
a 128 305
a 128 173
a 128 306
a 128 427
a 128 374
a 128 431
a 128 473
a 128 474
a 128 475
a 128 376
a 128 433
a 128 434
a 128 310
a 128 435
a 128 311
a 128 182
a 128 312
a 128 116
a 128 313
a 128 436
a 152 131
a 152 119
a 152 145
a 152 120
a 152 6
a 152 64
a 152 65
a 152 71
a 152 74
a 152 75
a 152 76
a 152 77
a 152 78
a 152 79
a 152 80
a 152 101
a 152 92
a 152 95
a 152 117
a 152 148
a 152 10
a 152 151
a 152 397
a 152 218
a 152 390
a 152 378
a 152 103
a 152 219
a 152 220
a 152 391
a 152 141
a 152 142
a 152 155
a 152 107
a 152 16
a 152 17
a 152 96
a 152 352
a 152 20
a 152 236
a 152 238
a 152 239
a 152 21
a 152 128
a 152 23
a 152 253
a 152 25
a 152 34
a 152 432
a 152 41
a 152 113
a 152 42
a 152 46
a 152 114
a 152 47
a 152 49
a 152 50
a 152 53
a 152 54
a 152 55
a 152 181
a 152 56
a 152 57
a 152 58
a 152 59
a 152 60
a 152 61
a 152 62
a 152 63
a 152 185
a 152 18
a 152 351
a 152 19
a 152 455
a 152 255
a 152 271
a 152 43
a 152 48
a 152 115
a 152 52
a 152 312
a 152 116
a 152 184
a 153 131
a 153 119
a 153 145
a 153 120
a 153 137
a 153 6
a 153 186
a 153 187
a 153 188
a 153 189
a 153 190
a 153 192
a 153 193
a 153 194
a 153 196
a 153 197
a 153 198
a 153 199
a 153 203
a 153 340
a 153 148
a 153 342
a 153 212
a 153 213
a 153 344
a 153 71
a 153 117
a 153 318
a 153 10
a 153 151
a 153 397
a 153 218
a 153 390
a 153 349
a 153 378
a 153 11
a 153 139
a 153 103
a 153 219
a 153 220
a 153 350
a 153 483
a 153 391
a 153 104
a 153 141
a 153 155
a 153 106
a 153 107
a 153 16
a 153 20
a 153 239
a 153 21
a 153 22
a 153 128
a 153 164
a 153 253
a 153 255
a 153 25
a 153 256
a 153 26
a 153 264
a 153 271
a 153 110
a 153 168
a 153 31
a 153 412
a 153 281
a 153 282
a 153 283
a 153 34
a 153 469
a 153 38
a 153 173
a 153 135
a 153 432
a 153 41
a 153 113
a 153 42
a 153 44
a 153 46
a 153 114
a 153 47
a 153 49
a 153 50
a 153 51
a 153 53
a 153 54
a 153 55
a 153 181
a 153 56
a 153 57
a 153 58
a 153 59
a 153 60
a 153 61
a 153 62
a 153 63
a 153 229
a 153 398
a 153 302
a 153 303
a 153 472
a 153 308
a 153 473
a 153 43
a 153 45
a 153 115
a 153 99
a 118 2
a 118 5
a 118 3
a 118 4
a 118 6
a 118 7
a 118 8
a 118 9
a 118 10
a 118 151
a 118 12
a 118 14
a 118 15
a 118 16
a 118 17
a 118 19
a 118 20
a 118 21
a 118 22
a 118 128
a 118 24
a 118 25
a 118 26
a 118 27
a 118 28
a 118 31
a 118 32
a 118 33
a 118 34
a 118 35
a 118 36
a 118 37
a 118 38
a 118 39
a 118 40
a 118 41
a 118 42
a 118 43
a 118 45
a 118 46
a 118 48
a 118 49
a 118 50
a 118 51
a 118 53
a 118 54
a 118 56
a 118 57
a 118 58
a 118 59
a 118 60
a 118 61
a 118 62
a 118 63
a 118 150
a 118 388
a 118 389
a 151 118
a 151 6
a 151 315
a 151 318
a 151 8
a 151 217
a 151 439
a 151 348
a 151 65
a 151 123
a 151 68
a 151 72
a 151 93
a 151 389
a 151 3
a 151 117
a 151 119
a 151 132
a 151 147
a 151 148
a 151 149
a 151 64
a 151 66
a 151 80
a 151 84
a 151 138
a 151 10
a 151 102
a 151 150
a 151 397
a 151 218
a 151 390
a 151 377
a 151 478
a 151 349
a 151 477
a 151 378
a 151 442
a 151 11
a 151 139
a 151 103
a 151 444
a 151 482
a 151 219
a 151 220
a 151 386
a 151 350
a 151 445
a 151 446
a 151 483
a 151 391
a 151 12
a 151 140
a 151 141
a 151 105
a 151 232
a 151 154
a 151 155
a 151 106
a 151 157
a 151 158
a 151 107
a 151 14
a 151 15
a 151 133
a 151 134
a 151 16
a 151 159
a 151 160
a 151 17
a 151 96
a 151 352
a 151 455
a 151 20
a 151 236
a 151 237
a 151 238
a 151 239
a 151 320
a 151 143
a 151 240
a 151 21
a 151 22
a 151 127
a 151 128
a 151 23
a 151 392
a 151 161
a 151 162
a 151 163
a 151 164
a 151 109
a 151 165
a 151 252
a 151 253
a 151 255
a 151 25
a 151 460
a 151 129
a 151 28
a 151 273
a 151 30
a 151 167
a 151 410
a 151 326
a 151 327
a 151 279
a 151 412
a 151 281
a 151 282
a 151 32
a 151 34
a 151 465
a 151 35
a 151 111
a 151 296
a 151 36
a 151 37
a 151 38
a 151 172
a 151 307
a 151 174
a 151 429
a 151 112
a 151 175
a 151 176
a 151 135
a 151 177
a 151 178
a 151 179
a 151 136
a 151 474
a 151 432
a 151 40
a 151 41
a 151 113
a 151 42
a 151 43
a 151 44
a 151 45
a 151 180
a 151 46
a 151 114
a 151 47
a 151 48
a 151 49
a 151 115
a 151 50
a 151 51
a 151 52
a 151 53
a 151 54
a 151 55
a 151 181
a 151 56
a 151 57
a 151 58
a 151 59
a 151 60
a 151 99
a 151 183
a 151 61
a 151 396
a 151 62
a 151 184
a 151 63
a 151 185
a 151 441
a 151 152
a 151 153
a 151 221
a 151 104
a 151 222
a 151 229
a 151 447
a 151 230
a 151 398
a 151 231
a 151 449
a 151 399
a 151 400
a 151 401
a 151 402
a 151 450
a 151 451
a 151 142
a 151 233
a 151 403
a 151 484
a 151 453
a 151 319
a 151 97
a 151 108
a 151 98
a 151 242
a 151 353
a 151 485
a 151 456
a 151 243
a 151 457
a 151 458
a 151 459
a 151 249
a 151 251
a 151 254
a 151 360
a 151 322
a 151 361
a 151 264
a 151 265
a 151 268
a 151 269
a 151 130
a 151 110
a 151 366
a 151 367
a 151 276
a 151 168
a 151 325
a 151 370
a 151 280
a 151 330
a 151 284
a 151 170
a 151 285
a 151 289
a 151 331
a 151 373
a 151 422
a 151 468
a 151 423
a 151 291
a 151 292
a 151 294
a 151 297
a 151 298
a 151 426
a 151 299
a 151 300
a 151 301
a 151 304
a 151 472
a 151 173
a 151 306
a 151 144
a 151 394
a 151 374
a 151 431
a 151 308
a 151 473
a 151 39
a 151 433
a 151 309
a 151 116
a 147 119
a 147 145
a 147 120
a 147 132
a 147 5
a 147 4
a 147 6
a 147 318
a 147 7
a 147 8
a 147 148
a 147 9
a 147 77
a 147 10
a 147 11
a 147 103
a 147 12
a 147 107
a 147 14
a 147 15
a 147 16
a 147 17
a 147 18
a 147 19
a 147 20
a 147 21
a 147 22
a 147 128
a 147 165
a 147 24
a 147 25
a 147 26
a 147 27
a 147 28
a 147 168
a 147 31
a 147 32
a 147 33
a 147 36
a 147 37
a 147 38
a 147 40
a 147 41
a 147 113
a 147 42
a 147 43
a 147 44
a 147 45
a 147 46
a 147 114
a 147 47
a 147 48
a 147 49
a 147 115
a 147 50
a 147 51
a 147 53
a 147 54
a 147 56
a 147 57
a 147 58
a 147 59
a 147 60
a 147 61
a 147 62
a 147 63
a 147 137
a 147 317
a 147 186
a 147 187
a 147 188
a 147 189
a 147 332
a 147 190
a 147 191
a 147 192
a 147 193
a 147 194
a 147 195
a 147 196
a 147 197
a 147 198
a 147 199
a 147 200
a 147 201
a 147 202
a 147 336
a 147 203
a 147 204
a 147 205
a 147 206
a 147 207
a 147 208
a 147 209
a 147 339
a 147 340
a 147 395
a 147 212
a 147 213
a 147 214
a 147 215
a 147 344
a 147 345
a 147 217
a 147 69
a 147 70
a 147 71
a 147 72
a 147 73
a 147 74
a 147 84
a 147 126
a 147 88
a 147 95
a 147 151
a 147 220
a 147 221
a 147 450
a 147 141
a 147 236
a 147 97
a 147 240
a 147 255
a 147 277
a 147 284
a 147 285
a 147 293
a 147 294
a 147 296
a 147 299
a 147 300
a 147 172
a 147 301
a 147 302
a 147 112
a 147 474
a 147 180
a 147 52
a 147 434
a 147 55
a 147 181
a 147 311
a 147 99
a 147 182
a 147 312
a 147 116
a 147 183
a 147 184
a 145 4
a 145 147
a 145 6
a 145 7
a 145 9
a 145 152
a 145 153
a 145 13
a 145 155
a 145 17
a 145 18
a 145 19
a 145 21
a 145 22
a 145 28
a 145 31
a 145 32
a 145 36
a 145 41
a 145 42
a 145 43
a 145 45
a 145 46
a 145 47
a 145 49
a 145 115
a 145 50
a 145 51
a 145 53
a 145 54
a 145 56
a 145 57
a 145 58
a 145 59
a 145 60
a 145 61
a 145 67
a 145 124
a 145 68
a 145 70
a 145 72
a 145 73
a 145 74
a 145 75
a 145 76
a 145 78
a 145 81
a 145 82
a 145 84
a 145 85
a 145 387
a 145 126
a 145 88
a 145 91
a 145 92
a 145 93
a 145 95
a 145 97
a 145 143
a 146 4
a 146 6
a 146 7
a 146 8
a 146 9
a 146 12
a 146 14
a 146 15
a 146 17
a 146 18
a 146 19
a 146 20
a 146 21
a 146 22
a 146 24
a 146 25
a 146 27
a 146 28
a 146 31
a 146 32
a 146 33
a 146 36
a 146 37
a 146 38
a 146 40
a 146 41
a 146 42
a 146 43
a 146 45
a 146 46
a 146 47
a 146 49
a 146 50
a 146 51
a 146 53
a 146 54
a 146 56
a 146 57
a 146 58
a 146 59
a 146 60
a 146 61
a 146 62
a 146 63
a 146 137
a 146 70
a 146 72
a 146 77
a 146 83
a 146 95
a 146 96
a 318 147
a 318 314
a 318 315
a 318 316
a 318 148
a 318 64
a 318 84
a 318 10
a 318 102
a 318 151
a 318 220
a 318 221
a 318 105
a 318 232
a 318 154
a 318 155
a 318 106
a 318 14
a 318 133
a 318 134
a 318 16
a 318 159
a 318 17
a 318 18
a 318 235
a 318 20
a 318 21
a 318 22
a 318 23
a 318 164
a 318 248
a 318 249
a 318 166
a 318 253
a 318 24
a 318 255
a 318 256
a 318 460
a 318 265
a 318 267
a 318 271
a 318 28
a 318 30
a 318 168
a 318 277
a 318 325
a 318 326
a 318 279
a 318 330
a 318 32
a 318 34
a 318 289
a 318 331
a 318 35
a 318 291
a 318 111
a 318 36
a 318 37
a 318 38
a 318 394
a 318 112
a 318 135
a 318 179
a 318 136
a 318 40
a 318 41
a 318 113
a 318 42
a 318 43
a 318 44
a 318 45
a 318 46
a 318 114
a 318 47
a 318 48
a 318 49
a 318 115
a 318 50
a 318 51
a 318 52
a 318 53
a 318 54
a 318 55
a 318 181
a 318 56
a 318 57
a 318 58
a 318 59
a 318 60
a 318 99
a 318 183
a 318 61
a 318 62
a 318 184
a 318 63
a 318 185
a 318 317
a 318 7
a 318 8
a 318 217
a 318 346
a 318 439
a 318 149
a 318 347
a 318 348
a 318 65
a 318 122
a 318 123
a 318 67
a 318 124
a 318 68
a 318 125
a 318 69
a 318 70
a 318 72
a 318 383
a 318 74
a 318 75
a 318 77
a 318 78
a 318 80
a 318 81
a 318 82
a 318 83
a 318 85
a 318 86
a 318 87
a 318 126
a 318 90
a 318 91
a 318 101
a 318 92
a 318 93
a 318 440
a 318 95
a 318 388
a 318 389
a 318 397
a 318 218
a 318 390
a 318 377
a 318 349
a 318 442
a 318 139
a 318 443
a 318 444
a 318 219
a 318 350
a 318 153
a 318 446
a 318 104
a 318 222
a 318 223
a 318 224
a 318 225
a 318 226
a 318 227
a 318 380
a 318 228
a 318 381
a 318 12
a 318 229
a 318 448
a 318 230
a 318 398
a 318 449
a 318 399
a 318 400
a 318 450
a 318 451
a 318 140
a 318 141
a 318 142
a 318 233
a 318 156
a 318 158
a 318 107
a 318 19
a 318 319
a 318 96
a 318 352
a 318 236
a 318 237
a 318 238
a 318 239
a 318 97
a 318 108
a 318 98
a 318 320
a 318 143
a 318 240
a 318 241
a 318 242
a 318 485
a 318 127
a 318 128
a 318 392
a 318 243
a 318 244
a 318 245
a 318 246
a 318 355
a 318 356
a 318 357
a 318 247
a 318 165
a 318 250
a 318 359
a 318 321
a 318 251
a 318 252
a 318 254
a 318 360
a 318 361
a 318 25
a 318 26
a 318 257
a 318 258
a 318 259
a 318 260
a 318 261
a 318 263
a 318 264
a 318 406
a 318 461
a 318 129
a 318 364
a 318 407
a 318 27
a 318 269
a 318 408
a 318 462
a 318 270
a 318 272
a 318 130
a 318 110
a 318 273
a 318 274
a 318 366
a 318 275
a 318 167
a 318 31
a 318 169
a 318 409
a 318 410
a 318 278
a 318 329
a 318 369
a 318 384
a 318 370
a 318 280
a 318 281
a 318 282
a 318 283
a 318 33
a 318 284
a 318 416
a 318 170
a 318 285
a 318 372
a 318 287
a 318 288
a 318 467
a 318 419
a 318 373
a 318 420
a 318 421
a 318 423
a 318 292
a 318 293
a 318 294
a 318 295
a 318 297
a 318 470
a 318 171
a 318 426
a 318 299
a 318 300
a 318 172
a 318 301
a 318 302
a 318 304
a 318 174
a 318 176
a 318 431
a 318 308
a 318 376
a 318 433
a 318 312
a 148 147
a 148 6
a 148 314
a 148 315
a 148 316
a 148 318
a 148 317
a 148 7
a 148 8
a 148 186
a 148 187
a 148 188
a 148 189
a 148 332
a 148 190
a 148 191
a 148 193
a 148 194
a 148 195
a 148 196
a 148 333
a 148 197
a 148 198
a 148 199
a 148 200
a 148 201
a 148 202
a 148 336
a 148 203
a 148 204
a 148 205
a 148 206
a 148 337
a 148 338
a 148 437
a 148 207
a 148 208
a 148 209
a 148 340
a 148 119
a 148 149
a 148 64
a 148 65
a 148 66
a 148 84
a 148 138
a 148 10
a 148 102
a 148 150
a 148 377
a 148 378
a 148 11
a 148 139
a 148 220
a 148 153
a 148 104
a 148 222
a 148 379
a 148 223
a 148 224
a 148 225
a 148 227
a 148 380
a 148 12
a 148 401
a 148 105
a 148 233
a 148 154
a 148 106
a 148 156
a 148 157
a 148 158
a 148 107
a 148 15
a 148 133
a 148 134
a 148 16
a 148 159
a 148 160
a 148 17
a 148 319
a 148 96
a 148 20
a 148 240
a 148 21
a 148 241
a 148 242
a 148 22
a 148 127
a 148 128
a 148 23
a 148 161
a 148 162
a 148 163
a 148 164
a 148 244
a 148 245
a 148 354
a 148 246
a 148 355
a 148 356
a 148 165
a 148 248
a 148 249
a 148 250
a 148 166
a 148 359
a 148 321
a 148 252
a 148 24
a 148 254
a 148 360
a 148 255
a 148 25
a 148 256
a 148 263
a 148 264
a 148 265
a 148 364
a 148 365
a 148 407
a 148 267
a 148 268
a 148 27
a 148 269
a 148 270
a 148 271
a 148 28
a 148 29
a 148 273
a 148 30
a 148 464
a 148 275
a 148 277
a 148 410
a 148 326
a 148 327
a 148 329
a 148 281
a 148 330
a 148 32
a 148 34
a 148 170
a 148 285
a 148 372
a 148 288
a 148 331
a 148 422
a 148 468
a 148 423
a 148 35
a 148 291
a 148 292
a 148 111
a 148 294
a 148 36
a 148 37
a 148 171
a 148 38
a 148 173
a 148 427
a 148 174
a 148 112
a 148 175
a 148 176
a 148 135
a 148 177
a 148 178
a 148 179
a 148 136
a 148 39
a 148 376
a 148 309
a 148 41
a 148 113
a 148 42
a 148 43
a 148 44
a 148 45
a 148 180
a 148 46
a 148 114
a 148 47
a 148 48
a 148 49
a 148 115
a 148 50
a 148 51
a 148 52
a 148 53
a 148 54
a 148 55
a 148 181
a 148 56
a 148 57
a 148 58
a 148 59
a 148 60
a 148 99
a 148 183
a 148 61
a 148 62
a 148 184
a 148 63
a 148 185
a 148 341
a 148 9
a 148 395
a 148 342
a 148 438
a 148 210
a 148 212
a 148 213
a 148 343
a 148 214
a 148 215
a 148 344
a 148 216
a 148 345
a 148 217
a 148 346
a 148 439
a 148 347
a 148 348
a 148 382
a 148 122
a 148 123
a 148 67
a 148 124
a 148 68
a 148 125
a 148 69
a 148 70
a 148 71
a 148 72
a 148 383
a 148 73
a 148 74
a 148 75
a 148 76
a 148 77
a 148 78
a 148 79
a 148 80
a 148 81
a 148 82
a 148 83
a 148 85
a 148 387
a 148 86
a 148 87
a 148 126
a 148 88
a 148 89
a 148 90
a 148 91
a 148 101
a 148 92
a 148 93
a 148 440
a 148 94
a 148 95
a 148 388
a 148 389
a 148 151
a 148 397
a 148 218
a 148 390
a 148 441
a 148 478
a 148 349
a 148 477
a 148 442
a 148 103
a 148 443
a 148 444
a 148 482
a 148 219
a 148 350
a 148 152
a 148 446
a 148 483
a 148 391
a 148 221
a 148 226
a 148 228
a 148 381
a 148 13
a 148 229
a 148 447
a 148 448
a 148 230
a 148 398
a 148 231
a 148 449
a 148 399
a 148 400
a 148 402
a 148 450
a 148 451
a 148 140
a 148 141
a 148 142
a 148 232
a 148 155
a 148 234
a 148 14
a 148 403
a 148 484
a 148 404
a 148 405
a 148 452
a 148 453
a 148 18
a 148 351
a 148 19
a 148 235
a 148 352
a 148 455
a 148 236
a 148 237
a 148 238
a 148 239
a 148 97
a 148 108
a 148 98
a 148 320
a 148 143
a 148 353
a 148 485
a 148 392
a 148 456
a 148 243
a 148 457
a 148 458
a 148 459
a 148 109
a 148 357
a 148 358
a 148 247
a 148 251
a 148 253
a 148 322
a 148 361
a 148 479
a 148 480
a 148 26
a 148 460
a 148 362
a 148 257
a 148 258
a 148 259
a 148 260
a 148 261
a 148 262
a 148 406
a 148 266
a 148 323
a 148 363
a 148 461
a 148 129
a 148 324
a 148 408
a 148 462
a 148 272
a 148 130
a 148 110
a 148 463
a 148 274
a 148 366
a 148 367
a 148 167
a 148 276
a 148 168
a 148 31
a 148 169
a 148 325
a 148 409
a 148 328
a 148 278
a 148 368
a 148 279
a 148 369
a 148 411
a 148 384
a 148 412
a 148 413
a 148 414
a 148 370
a 148 280
a 148 282
a 148 371
a 148 283
a 148 415
a 148 33
a 148 284
a 148 416
a 148 417
a 148 418
a 148 393
a 148 465
a 148 466
a 148 286
a 148 287
a 148 289
a 148 290
a 148 467
a 148 419
a 148 373
a 148 420
a 148 421
a 148 469
a 148 424
a 148 293
a 148 295
a 148 296
a 148 297
a 148 470
a 148 425
a 148 298
a 148 426
a 148 299
a 148 300
a 148 172
a 148 301
a 148 302
a 148 303
a 148 304
a 148 471
a 148 472
a 148 305
a 148 306
a 148 307
a 148 144
a 148 394
a 148 374
a 148 428
a 148 429
a 148 430
a 148 431
a 148 308
a 148 473
a 148 474
a 148 475
a 148 432
a 148 433
a 148 40
a 148 434
a 148 435
a 148 311
a 148 182
a 148 312
a 148 116
a 148 396
a 148 385
a 148 313
a 148 476
a 165 147
a 165 6
a 165 317
a 165 186
a 165 193
a 165 340
a 165 148
a 165 217
a 165 151
a 165 220
a 165 15
a 165 17
a 165 97
a 165 21
a 165 128
a 165 164
a 165 354
a 165 357
a 165 358
a 165 247
a 165 316
a 165 318
a 165 7
a 165 8
a 165 10
a 165 104
a 165 107
a 165 16
a 165 20
a 165 359
a 165 253
a 165 24
a 165 25
a 165 460
a 165 258
a 165 280
a 165 32
a 165 34
a 165 291
a 165 297
a 165 394
a 165 428
a 165 39
a 165 41
a 165 113
a 165 42
a 165 43
a 165 44
a 165 46
a 165 114
a 165 47
a 165 48
a 165 49
a 165 50
a 165 53
a 165 54
a 165 55
a 165 181
a 165 56
a 165 57
a 165 58
a 165 59
a 165 60
a 165 61
a 165 62
a 165 63
a 165 185
a 165 255
a 165 277
a 165 325
a 165 284
a 165 293
a 165 294
a 165 296
a 165 299
a 165 38
a 165 300
a 165 172
a 165 301
a 165 302
a 165 115
a 165 51
a 165 52
a 165 434
a 165 311
a 165 99
a 165 182
a 165 312
a 165 116
a 165 183
a 168 147
a 168 137
a 168 6
a 168 314
a 168 315
a 168 316
a 168 318
a 168 317
a 168 7
a 168 8
a 168 346
a 168 439
a 168 348
a 168 220
a 168 153
a 168 391
a 168 398
a 168 399
a 168 400
a 168 402
a 168 451
a 168 107
a 168 17
a 168 20
a 168 21
a 168 241
a 168 128
a 168 23
a 168 164
a 168 244
a 168 245
a 168 246
a 168 355
a 168 250
a 168 166
a 168 359
a 168 251
a 168 252
a 168 24
a 168 255
a 168 256
a 168 26
a 168 265
a 168 266
a 168 323
a 168 365
a 168 407
a 168 267
a 168 27
a 168 269
a 168 462
a 168 271
a 168 272
a 168 110
a 168 28
a 168 29
a 168 273
a 168 30
a 168 464
a 168 275
a 168 167
a 168 276
a 168 119
a 168 148
a 168 64
a 168 65
a 168 66
a 168 84
a 168 138
a 168 10
a 168 102
a 168 151
a 168 377
a 168 386
a 168 446
a 168 104
a 168 222
a 168 228
a 168 13
a 168 141
a 168 105
a 168 232
a 168 106
a 168 158
a 168 14
a 168 133
a 168 134
a 168 16
a 168 159
a 168 236
a 168 240
a 168 22
a 168 127
a 168 253
a 168 322
a 168 460
a 168 362
a 168 257
a 168 260
a 168 261
a 168 263
a 168 264
a 168 406
a 168 363
a 168 461
a 168 274
a 168 366
a 168 31
a 168 169
a 168 277
a 168 325
a 168 278
a 168 368
a 168 279
a 168 329
a 168 384
a 168 281
a 168 282
a 168 330
a 168 283
a 168 32
a 168 33
a 168 34
a 168 285
a 168 287
a 168 288
a 168 289
a 168 290
a 168 467
a 168 419
a 168 35
a 168 111
a 168 294
a 168 296
a 168 297
a 168 37
a 168 298
a 168 299
a 168 38
a 168 172
a 168 301
a 168 304
a 168 173
a 168 306
a 168 307
a 168 394
a 168 429
a 168 112
a 168 175
a 168 135
a 168 177
a 168 179
a 168 136
a 168 309
a 168 41
a 168 113
a 168 42
a 168 43
a 168 44
a 168 46
a 168 114
a 168 47
a 168 48
a 168 49
a 168 115
a 168 50
a 168 51
a 168 52
a 168 53
a 168 54
a 168 55
a 168 181
a 168 56
a 168 57
a 168 58
a 168 59
a 168 60
a 168 99
a 168 183
a 168 61
a 168 62
a 168 184
a 168 63
a 168 185
a 168 409
a 168 410
a 168 326
a 168 327
a 168 328
a 168 369
a 168 411
a 168 412
a 168 413
a 168 414
a 168 280
a 168 415
a 168 466
a 168 372
a 168 331
a 168 373
a 168 420
a 168 421
a 168 423
a 168 291
a 168 292
a 168 171
a 168 426
a 168 302
a 168 303
a 168 471
a 168 472
a 168 144
a 168 308
a 168 473
a 168 45
a 168 436
a 137 4
a 137 100
a 137 146
a 137 147
a 137 6
a 137 9
a 137 74
a 137 77
a 137 78
a 137 80
a 137 83
a 137 84
a 137 86
a 137 10
a 137 90
a 137 440
a 137 102
a 137 378
a 137 11
a 137 103
a 137 153
a 137 106
a 137 14
a 137 16
a 137 159
a 137 17
a 137 18
a 137 19
a 137 20
a 137 97
a 137 240
a 137 21
a 137 22
a 137 127
a 137 163
a 137 164
a 137 129
a 137 28
a 137 273
a 137 30
a 137 167
a 137 168
a 137 31
a 137 281
a 137 32
a 137 35
a 137 111
a 137 36
a 137 37
a 137 38
a 137 172
a 137 302
a 137 303
a 137 307
a 137 112
a 137 135
a 137 41
a 137 113
a 137 42
a 137 43
a 137 44
a 137 45
a 137 46
a 137 114
a 137 47
a 137 48
a 137 49
a 137 115
a 137 50
a 137 51
a 137 52
a 137 53
a 137 54
a 137 55
a 137 181
a 137 56
a 137 57
a 137 58
a 137 59
a 137 60
a 137 99
a 137 116
a 137 183
a 137 61
a 137 62
a 137 184
a 137 63
a 137 185
a 137 186
a 137 64
a 137 65
a 137 125
a 137 69
a 137 70
a 137 71
a 137 72
a 137 383
a 137 73
a 137 75
a 137 76
a 137 85
a 137 126
a 137 88
a 137 91
a 137 101
a 137 92
a 137 93
a 137 95
a 137 220
a 137 221
a 137 104
a 137 222
a 137 379
a 137 225
a 137 380
a 137 228
a 137 13
a 137 140
a 137 141
a 137 142
a 137 319
a 137 96
a 137 236
a 137 108
a 137 320
a 137 143
a 137 252
a 137 294
a 137 300
a 137 430
a 137 40
a 137 434
a 137 182
a 137 312
a 137 313
a 440 137
a 440 318
a 440 148
a 440 10
a 440 155
a 440 107
a 440 16
a 440 98
a 440 21
a 440 22
a 440 128
a 440 253
a 440 255
a 440 275
a 440 410
a 440 34
a 440 285
a 440 113
a 440 42
a 440 44
a 440 46
a 440 114
a 440 47
a 440 48
a 440 49
a 440 115
a 440 50
a 440 51
a 440 52
a 440 53
a 440 54
a 440 55
a 440 181
a 440 56
a 440 57
a 440 58
a 440 59
a 440 60
a 440 61
a 440 62
a 440 63
a 440 41
a 378 137
a 378 186
a 378 187
a 378 188
a 378 189
a 378 332
a 378 190
a 378 191
a 378 192
a 378 193
a 378 194
a 378 196
a 378 197
a 378 198
a 378 199
a 378 200
a 378 203
a 378 206
a 378 207
a 378 340
a 378 148
a 378 341
a 378 9
a 378 395
a 378 342
a 378 438
a 378 210
a 378 212
a 378 213
a 378 343
a 378 214
a 378 215
a 378 344
a 378 216
a 378 345
a 378 151
a 378 397
a 378 377
a 378 441
a 378 3
a 378 117
a 378 64
a 378 84
a 378 10
a 378 90
a 378 102
a 378 218
a 378 477
a 378 442
a 378 11
a 378 139
a 378 103
a 378 219
a 378 391
a 378 104
a 378 222
a 378 12
a 378 450
a 378 141
a 378 142
a 378 232
a 378 106
a 378 107
a 378 16
a 378 17
a 378 96
a 378 455
a 378 20
a 378 236
a 378 237
a 378 238
a 378 239
a 378 98
a 378 240
a 378 21
a 378 22
a 378 485
a 378 127
a 378 128
a 378 392
a 378 164
a 378 253
a 378 322
a 378 255
a 378 25
a 378 256
a 378 257
a 378 261
a 378 263
a 378 264
a 378 406
a 378 265
a 378 129
a 378 271
a 378 110
a 378 273
a 378 274
a 378 30
a 378 167
a 378 279
a 378 412
a 378 280
a 378 281
a 378 32
a 378 34
a 378 111
a 378 296
a 378 297
a 378 112
a 378 41
a 378 113
a 378 42
a 378 43
a 378 44
a 378 46
a 378 114
a 378 47
a 378 48
a 378 49
a 378 115
a 378 50
a 378 51
a 378 52
a 378 53
a 378 54
a 378 55
a 378 181
a 378 56
a 378 57
a 378 58
a 378 59
a 378 60
a 378 99
a 378 61
a 378 62
a 378 63
a 378 185
a 378 220
a 378 386
a 378 350
a 378 152
a 378 153
a 378 445
a 378 446
a 378 483
a 378 223
a 378 224
a 378 227
a 378 229
a 378 447
a 378 230
a 378 398
a 378 231
a 378 449
a 378 399
a 378 400
a 378 401
a 378 402
a 378 451
a 378 140
a 378 105
a 378 154
a 378 155
a 378 157
a 378 158
a 378 14
a 378 15
a 378 403
a 378 134
a 378 159
a 378 405
a 378 319
a 378 97
a 378 108
a 378 143
a 378 243
a 378 457
a 378 458
a 378 161
a 378 459
a 378 162
a 378 163
a 378 268
a 378 269
a 378 408
a 378 367
a 378 31
a 378 169
a 378 330
a 378 283
a 378 285
a 378 372
a 378 289
a 378 373
a 378 422
a 378 468
a 378 423
a 378 291
a 378 292
a 378 294
a 378 37
a 378 298
a 378 426
a 378 299
a 378 38
a 378 301
a 378 303
a 378 304
a 378 471
a 378 472
a 378 305
a 378 173
a 378 307
a 378 144
a 378 394
a 378 374
a 378 430
a 378 308
a 378 473
a 378 135
a 378 178
a 378 475
a 378 39
a 378 40
a 240 137
a 240 317
a 240 7
a 240 186
a 240 187
a 240 188
a 240 189
a 240 332
a 240 190
a 240 191
a 240 192
a 240 193
a 240 194
a 240 195
a 240 196
a 240 333
a 240 197
a 240 198
a 240 199
a 240 200
a 240 334
a 240 201
a 240 202
a 240 335
a 240 336
a 240 203
a 240 204
a 240 205
a 240 206
a 240 337
a 240 338
a 240 207
a 240 208
a 240 209
a 240 339
a 240 340
a 240 148
a 240 341
a 240 9
a 240 395
a 240 342
a 240 438
a 240 210
a 240 211
a 240 212
a 240 213
a 240 343
a 240 214
a 240 215
a 240 344
a 240 216
a 240 345
a 240 217
a 240 346
a 240 125
a 240 151
a 240 218
a 240 378
a 240 219
a 240 350
a 240 446
a 240 221
a 240 104
a 240 222
a 240 223
a 240 224
a 240 225
a 240 226
a 240 227
a 240 380
a 240 228
a 240 381
a 240 12
a 240 13
a 240 229
a 240 447
a 240 448
a 240 230
a 240 398
a 240 231
a 240 449
a 240 399
a 240 400
a 240 401
a 240 402
a 240 450
a 240 451
a 240 140
a 240 141
a 240 142
a 240 233
a 240 154
a 240 155
a 240 157
a 240 158
a 240 107
a 240 234
a 240 403
a 240 134
a 240 484
a 240 16
a 240 404
a 240 17
a 240 18
a 240 19
a 240 96
a 240 352
a 240 20
a 240 236
a 240 237
a 240 97
a 240 108
a 240 98
a 240 320
a 240 143
a 240 119
a 240 132
a 240 121
a 240 147
a 240 6
a 240 314
a 240 316
a 240 318
a 240 8
a 240 149
a 240 64
a 240 65
a 240 66
a 240 80
a 240 84
a 240 138
a 240 10
a 240 90
a 240 91
a 240 101
a 240 102
a 240 150
a 240 441
a 240 220
a 240 386
a 240 105
a 240 232
a 240 106
a 240 14
a 240 15
a 240 133
a 240 159
a 240 160
a 240 319
a 240 455
a 240 238
a 240 239
a 240 21
a 240 22
a 240 127
a 240 128
a 240 23
a 240 161
a 240 162
a 240 164
a 240 109
a 240 250
a 240 166
a 240 24
a 240 255
a 240 460
a 240 362
a 240 258
a 240 259
a 240 260
a 240 261
a 240 264
a 240 129
a 240 324
a 240 130
a 240 110
a 240 273
a 240 30
a 240 275
a 240 167
a 240 325
a 240 280
a 240 281
a 240 32
a 240 34
a 240 35
a 240 111
a 240 38
a 240 307
a 240 394
a 240 174
a 240 429
a 240 112
a 240 175
a 240 176
a 240 135
a 240 177
a 240 178
a 240 179
a 240 136
a 240 40
a 240 41
a 240 113
a 240 42
a 240 43
a 240 44
a 240 45
a 240 46
a 240 114
a 240 47
a 240 48
a 240 49
a 240 115
a 240 50
a 240 51
a 240 52
a 240 53
a 240 54
a 240 55
a 240 181
a 240 56
a 240 57
a 240 58
a 240 59
a 240 60
a 240 99
a 240 183
a 240 61
a 240 62
a 240 184
a 240 63
a 240 185
a 240 241
a 240 242
a 240 353
a 240 485
a 240 243
a 240 245
a 240 354
a 240 355
a 240 356
a 240 247
a 240 248
a 240 249
a 240 359
a 240 321
a 240 251
a 240 253
a 240 254
a 240 360
a 240 322
a 240 25
a 240 256
a 240 26
a 240 257
a 240 263
a 240 406
a 240 265
a 240 461
a 240 364
a 240 365
a 240 407
a 240 267
a 240 268
a 240 27
a 240 269
a 240 408
a 240 462
a 240 270
a 240 271
a 240 272
a 240 274
a 240 366
a 240 464
a 240 367
a 240 276
a 240 168
a 240 31
a 240 169
a 240 277
a 240 409
a 240 410
a 240 326
a 240 327
a 240 328
a 240 278
a 240 368
a 240 279
a 240 411
a 240 384
a 240 413
a 240 330
a 240 283
a 240 415
a 240 33
a 240 284
a 240 417
a 240 418
a 240 170
a 240 393
a 240 465
a 240 285
a 240 466
a 240 372
a 240 286
a 240 287
a 240 288
a 240 289
a 240 290
a 240 331
a 240 467
a 240 419
a 240 373
a 240 420
a 240 421
a 240 422
a 240 468
a 240 423
a 240 291
a 240 292
a 240 293
a 240 294
a 240 295
a 240 296
a 240 297
a 240 36
a 240 425
a 240 37
a 240 171
a 240 298
a 240 426
a 240 299
a 240 300
a 240 172
a 240 301
a 240 302
a 240 303
a 240 304
a 240 471
a 240 472
a 240 305
a 240 173
a 240 306
a 240 427
a 240 144
a 240 374
a 240 430
a 240 431
a 240 308
a 240 473
a 240 474
a 240 432
a 240 39
a 240 433
a 240 309
a 240 312
a 240 116
a 240 396
a 240 436
a 127 137
a 127 6
a 127 7
a 127 8
a 127 186
a 127 187
a 127 188
a 127 189
a 127 332
a 127 190
a 127 191
a 127 192
a 127 193
a 127 194
a 127 196
a 127 197
a 127 198
a 127 199
a 127 200
a 127 206
a 127 208
a 127 340
a 127 148
a 127 341
a 127 210
a 127 213
a 127 214
a 127 215
a 127 216
a 127 217
a 127 346
a 127 439
a 127 149
a 127 348
a 127 65
a 127 66
a 127 382
a 127 122
a 127 123
a 127 67
a 127 124
a 127 68
a 127 125
a 127 69
a 127 70
a 127 72
a 127 73
a 127 77
a 127 126
a 127 95
a 127 151
a 127 397
a 127 218
a 127 390
a 127 377
a 127 441
a 127 349
a 127 378
a 127 11
a 127 139
a 127 219
a 127 220
a 127 386
a 127 350
a 127 446
a 127 391
a 127 221
a 127 104
a 127 223
a 127 224
a 127 227
a 127 12
a 127 229
a 127 447
a 127 230
a 127 398
a 127 231
a 127 449
a 127 399
a 127 400
a 127 402
a 127 451
a 127 140
a 127 141
a 127 142
a 127 232
a 127 154
a 127 155
a 127 106
a 127 158
a 127 107
a 127 15
a 127 134
a 127 17
a 127 18
a 127 19
a 127 319
a 127 96
a 127 352
a 127 20
a 127 236
a 127 237
a 127 239
a 127 97
a 127 108
a 127 98
a 127 320
a 127 143
a 127 240
a 127 22
a 127 353
a 127 485
a 127 2
a 127 117
a 127 119
a 127 316
a 127 318
a 127 64
a 127 80
a 127 84
a 127 138
a 127 10
a 127 89
a 127 102
a 127 150
a 127 477
a 127 442
a 127 103
a 127 483
a 127 222
a 127 225
a 127 228
a 127 105
a 127 233
a 127 14
a 127 133
a 127 16
a 127 159
a 127 160
a 127 455
a 127 238
a 127 21
a 127 128
a 127 23
a 127 392
a 127 161
a 127 162
a 127 163
a 127 164
a 127 244
a 127 251
a 127 252
a 127 253
a 127 24
a 127 254
a 127 322
a 127 255
a 127 256
a 127 26
a 127 460
a 127 263
a 127 264
a 127 266
a 127 129
a 127 271
a 127 272
a 127 110
a 127 273
a 127 30
a 127 275
a 127 167
a 127 279
a 127 412
a 127 370
a 127 280
a 127 281
a 127 282
a 127 283
a 127 32
a 127 33
a 127 34
a 127 289
a 127 35
a 127 291
a 127 111
a 127 297
a 127 38
a 127 307
a 127 144
a 127 394
a 127 174
a 127 429
a 127 112
a 127 175
a 127 176
a 127 135
a 127 177
a 127 178
a 127 179
a 127 136
a 127 432
a 127 40
a 127 41
a 127 113
a 127 42
a 127 43
a 127 44
a 127 45
a 127 46
a 127 114
a 127 47
a 127 48
a 127 49
a 127 115
a 127 50
a 127 51
a 127 52
a 127 53
a 127 54
a 127 55
a 127 181
a 127 56
a 127 57
a 127 58
a 127 59
a 127 60
a 127 99
a 127 183
a 127 61
a 127 396
a 127 62
a 127 184
a 127 63
a 127 185
a 127 456
a 127 243
a 127 457
a 127 245
a 127 354
a 127 246
a 127 355
a 127 356
a 127 247
a 127 248
a 127 249
a 127 166
a 127 359
a 127 479
a 127 362
a 127 257
a 127 258
a 127 259
a 127 260
a 127 261
a 127 262
a 127 406
a 127 265
a 127 461
a 127 324
a 127 364
a 127 365
a 127 407
a 127 267
a 127 268
a 127 27
a 127 269
a 127 408
a 127 462
a 127 270
a 127 463
a 127 28
a 127 29
a 127 274
a 127 366
a 127 464
a 127 367
a 127 276
a 127 168
a 127 31
a 127 169
a 127 277
a 127 325
a 127 409
a 127 328
a 127 368
a 127 329
a 127 369
a 127 411
a 127 384
a 127 414
a 127 330
a 127 415
a 127 284
a 127 416
a 127 417
a 127 418
a 127 170
a 127 393
a 127 465
a 127 285
a 127 372
a 127 286
a 127 288
a 127 290
a 127 331
a 127 373
a 127 420
a 127 421
a 127 422
a 127 468
a 127 423
a 127 292
a 127 293
a 127 294
a 127 295
a 127 296
a 127 36
a 127 470
a 127 37
a 127 171
a 127 298
a 127 426
a 127 299
a 127 300
a 127 172
a 127 301
a 127 302
a 127 303
a 127 304
a 127 471
a 127 472
a 127 305
a 127 173
a 127 306
a 127 427
a 127 374
a 127 428
a 127 308
a 127 473
a 127 39
a 127 376
a 127 309
a 127 434
a 127 435
a 127 182
a 127 312
a 127 116
a 127 436
a 129 137
a 129 7
a 129 64
a 129 65
a 129 66
a 129 382
a 129 122
a 129 123
a 129 67
a 129 124
a 129 68
a 129 125
a 129 69
a 129 70
a 129 71
a 129 72
a 129 383
a 129 73
a 129 74
a 129 75
a 129 76
a 129 77
a 129 78
a 129 79
a 129 81
a 129 82
a 129 83
a 129 84
a 129 85
a 129 387
a 129 86
a 129 87
a 129 138
a 129 126
a 129 88
a 129 89
a 129 90
a 129 91
a 129 101
a 129 92
a 129 93
a 129 94
a 129 95
a 129 388
a 129 151
a 129 378
a 129 350
a 129 232
a 129 154
a 129 107
a 129 17
a 129 18
a 129 351
a 129 19
a 129 319
a 129 96
a 129 352
a 129 20
a 129 236
a 129 237
a 129 97
a 129 108
a 129 98
a 129 320
a 129 143
a 129 240
a 129 21
a 129 241
a 129 242
a 129 127
a 129 128
a 129 252
a 129 322
a 129 255
a 129 2
a 129 119
a 129 120
a 129 6
a 129 318
a 129 148
a 129 10
a 129 102
a 129 220
a 129 386
a 129 104
a 129 228
a 129 141
a 129 142
a 129 105
a 129 155
a 129 106
a 129 158
a 129 14
a 129 133
a 129 134
a 129 16
a 129 159
a 129 22
a 129 164
a 129 109
a 129 251
a 129 253
a 129 25
a 129 460
a 129 258
a 129 261
a 129 264
a 129 271
a 129 130
a 129 110
a 129 28
a 129 366
a 129 30
a 129 367
a 129 167
a 129 368
a 129 279
a 129 329
a 129 282
a 129 32
a 129 34
a 129 35
a 129 111
a 129 299
a 129 38
a 129 394
a 129 429
a 129 112
a 129 135
a 129 179
a 129 136
a 129 41
a 129 113
a 129 42
a 129 43
a 129 44
a 129 46
a 129 114
a 129 47
a 129 48
a 129 49
a 129 115
a 129 50
a 129 51
a 129 52
a 129 53
a 129 54
a 129 55
a 129 181
a 129 56
a 129 57
a 129 58
a 129 59
a 129 60
a 129 99
a 129 183
a 129 61
a 129 62
a 129 184
a 129 63
a 129 185
a 129 278
a 129 330
a 129 423
a 129 291
a 129 292
a 129 294
a 129 306
a 129 307
a 129 144
a 129 374
a 129 308
a 129 39
a 129 40
a 273 137
a 273 317
a 273 186
a 273 187
a 273 188
a 273 189
a 273 332
a 273 190
a 273 191
a 273 192
a 273 193
a 273 194
a 273 195
a 273 196
a 273 333
a 273 197
a 273 198
a 273 199
a 273 200
a 273 334
a 273 201
a 273 202
a 273 336
a 273 203
a 273 204
a 273 205
a 273 206
a 273 337
a 273 338
a 273 207
a 273 208
a 273 209
a 273 339
a 273 340
a 273 148
a 273 341
a 273 9
a 273 395
a 273 342
a 273 438
a 273 212
a 273 213
a 273 214
a 273 215
a 273 345
a 273 217
a 273 346
a 273 439
a 273 348
a 273 151
a 273 218
a 273 378
a 273 220
a 273 350
a 273 221
a 273 104
a 273 222
a 273 379
a 273 223
a 273 224
a 273 225
a 273 226
a 273 227
a 273 228
a 273 381
a 273 12
a 273 13
a 273 229
a 273 447
a 273 448
a 273 230
a 273 398
a 273 231
a 273 449
a 273 399
a 273 400
a 273 401
a 273 402
a 273 451
a 273 106
a 273 107
a 273 134
a 273 96
a 273 20
a 273 236
a 273 97
a 273 98
a 273 143
a 273 240
a 273 21
a 273 22
a 273 127
a 273 128
a 273 23
a 273 161
a 273 459
a 273 162
a 273 163
a 273 164
a 273 356
a 273 249
a 273 253
a 273 255
a 273 256
a 273 26
a 273 257
a 273 260
a 273 263
a 273 264
a 273 265
a 273 323
a 273 324
a 273 364
a 273 407
a 273 267
a 273 268
a 273 27
a 273 269
a 273 408
a 273 462
a 273 270
a 273 272
a 273 110
a 273 463
a 273 28
a 273 119
a 273 6
a 273 318
a 273 64
a 273 65
a 273 66
a 273 84
a 273 138
a 273 10
a 273 102
a 273 386
a 273 105
a 273 232
a 273 154
a 273 14
a 273 133
a 273 16
a 273 159
a 273 17
a 273 108
a 273 109
a 273 251
a 273 25
a 273 460
a 273 362
a 273 259
a 273 261
a 273 406
a 273 266
a 273 363
a 273 271
a 273 274
a 273 366
a 273 30
a 273 275
a 273 167
a 273 168
a 273 326
a 273 328
a 273 278
a 273 368
a 273 279
a 273 329
a 273 281
a 273 282
a 273 371
a 273 283
a 273 32
a 273 33
a 273 34
a 273 284
a 273 285
a 273 466
a 273 286
a 273 287
a 273 289
a 273 290
a 273 35
a 273 291
a 273 292
a 273 111
a 273 294
a 273 295
a 273 296
a 273 297
a 273 38
a 273 301
a 273 307
a 273 427
a 273 394
a 273 174
a 273 429
a 273 112
a 273 175
a 273 176
a 273 135
a 273 177
a 273 178
a 273 179
a 273 136
a 273 309
a 273 41
a 273 113
a 273 42
a 273 43
a 273 44
a 273 45
a 273 46
a 273 114
a 273 47
a 273 48
a 273 49
a 273 115
a 273 50
a 273 51
a 273 52
a 273 53
a 273 54
a 273 55
a 273 181
a 273 56
a 273 57
a 273 58
a 273 59
a 273 60
a 273 99
a 273 183
a 273 61
a 273 62
a 273 184
a 273 63
a 273 185
a 273 464
a 273 367
a 273 276
a 273 31
a 273 277
a 273 409
a 273 327
a 273 384
a 273 412
a 273 280
a 273 393
a 273 465
a 273 372
a 273 373
a 273 420
a 273 421
a 273 422
a 273 468
a 273 469
a 273 423
a 273 293
a 273 425
a 273 37
a 273 171
a 273 298
a 273 426
a 273 299
a 273 300
a 273 172
a 273 302
a 273 303
a 273 304
a 273 472
a 273 305
a 273 173
a 273 306
a 273 144
a 273 308
a 273 473
a 273 475
a 273 432
a 273 433
a 273 40
a 273 396
a 273 436
a 167 137
a 167 6
a 167 317
a 167 7
a 167 186
a 167 334
a 167 204
a 167 207
a 167 339
a 167 342
a 167 343
a 167 217
a 167 346
a 167 439
a 167 348
a 167 123
a 167 68
a 167 72
a 167 95
a 167 151
a 167 218
a 167 378
a 167 11
a 167 139
a 167 219
a 167 220
a 167 350
a 167 391
a 167 221
a 167 104
a 167 222
a 167 223
a 167 224
a 167 225
a 167 226
a 167 227
a 167 380
a 167 228
a 167 381
a 167 12
a 167 13
a 167 229
a 167 447
a 167 448
a 167 230
a 167 398
a 167 231
a 167 449
a 167 399
a 167 400
a 167 401
a 167 402
a 167 450
a 167 451
a 167 140
a 167 141
a 167 142
a 167 233
a 167 154
a 167 155
a 167 106
a 167 157
a 167 158
a 167 107
a 167 15
a 167 403
a 167 134
a 167 16
a 167 159
a 167 405
a 167 17
a 167 18
a 167 19
a 167 319
a 167 96
a 167 352
a 167 20
a 167 236
a 167 239
a 167 97
a 167 108
a 167 98
a 167 320
a 167 143
a 167 240
a 167 21
a 167 241
a 167 242
a 167 22
a 167 127
a 167 128
a 167 23
a 167 161
a 167 459
a 167 162
a 167 164
a 167 109
a 167 245
a 167 246
a 167 355
a 167 247
a 167 248
a 167 249
a 167 250
a 167 251
a 167 252
a 167 253
a 167 24
a 167 322
a 167 255
a 167 361
a 167 25
a 167 479
a 167 480
a 167 256
a 167 26
a 167 362
a 167 257
a 167 258
a 167 260
a 167 261
a 167 263
a 167 264
a 167 406
a 167 265
a 167 266
a 167 323
a 167 363
a 167 461
a 167 129
a 167 324
a 167 364
a 167 407
a 167 267
a 167 268
a 167 27
a 167 269
a 167 408
a 167 462
a 167 270
a 167 271
a 167 272
a 167 130
a 167 110
a 167 463
a 167 28
a 167 29
a 167 273
a 167 274
a 167 366
a 167 30
a 167 275
a 167 367
a 167 119
a 167 314
a 167 316
a 167 318
a 167 8
a 167 148
a 167 64
a 167 66
a 167 84
a 167 10
a 167 102
a 167 397
a 167 441
a 167 446
a 167 105
a 167 232
a 167 14
a 167 133
a 167 237
a 167 392
a 167 166
a 167 254
a 167 460
a 167 259
a 167 262
a 167 276
a 167 168
a 167 31
a 167 277
a 167 325
a 167 328
a 167 278
a 167 368
a 167 279
a 167 329
a 167 369
a 167 411
a 167 384
a 167 412
a 167 280
a 167 281
a 167 282
a 167 330
a 167 371
a 167 283
a 167 415
a 167 32
a 167 33
a 167 34
a 167 284
a 167 393
a 167 285
a 167 286
a 167 287
a 167 288
a 167 289
a 167 290
a 167 331
a 167 467
a 167 419
a 167 422
a 167 35
a 167 291
a 167 292
a 167 111
a 167 293
a 167 294
a 167 295
a 167 296
a 167 297
a 167 37
a 167 299
a 167 38
a 167 172
a 167 301
a 167 304
a 167 306
a 167 307
a 167 427
a 167 394
a 167 429
a 167 112
a 167 375
a 167 308
a 167 135
a 167 179
a 167 136
a 167 432
a 167 309
a 167 40
a 167 41
a 167 113
a 167 42
a 167 43
a 167 44
a 167 46
a 167 114
a 167 47
a 167 48
a 167 49
a 167 115
a 167 50
a 167 51
a 167 52
a 167 53
a 167 54
a 167 55
a 167 181
a 167 56
a 167 57
a 167 58
a 167 59
a 167 60
a 167 99
a 167 183
a 167 61
a 167 62
a 167 184
a 167 63
a 167 185
a 167 169
a 167 409
a 167 410
a 167 326
a 167 414
a 167 416
a 167 417
a 167 418
a 167 170
a 167 372
a 167 373
a 167 420
a 167 421
a 167 468
a 167 423
a 167 36
a 167 470
a 167 425
a 167 171
a 167 298
a 167 426
a 167 300
a 167 302
a 167 303
a 167 471
a 167 472
a 167 305
a 167 173
a 167 144
a 167 174
a 167 428
a 167 175
a 167 176
a 167 430
a 167 473
a 167 177
a 167 178
a 167 474
a 167 39
a 167 434
a 167 182
a 281 137
a 281 314
a 281 315
a 281 316
a 281 317
a 281 7
a 281 8
a 281 186
a 281 187
a 281 188
a 281 189
a 281 332
a 281 190
a 281 191
a 281 192
a 281 193
a 281 194
a 281 195
a 281 196
a 281 333
a 281 197
a 281 198
a 281 199
a 281 200
a 281 201
a 281 336
a 281 203
a 281 206
a 281 337
a 281 338
a 281 207
a 281 209
a 281 340
a 281 148
a 281 341
a 281 9
a 281 212
a 281 214
a 281 216
a 281 217
a 281 346
a 281 122
a 281 67
a 281 124
a 281 68
a 281 70
a 281 72
a 281 73
a 281 83
a 281 86
a 281 87
a 281 10
a 281 90
a 281 91
a 281 93
a 281 95
a 281 102
a 281 388
a 281 151
a 281 218
a 281 378
a 281 350
a 281 153
a 281 446
a 281 221
a 281 104
a 281 225
a 281 12
a 281 447
a 281 398
a 281 140
a 281 141
a 281 142
a 281 233
a 281 154
a 281 107
a 281 17
a 281 18
a 281 351
a 281 19
a 281 319
a 281 96
a 281 235
a 281 352
a 281 455
a 281 20
a 281 236
a 281 237
a 281 238
a 281 239
a 281 97
a 281 108
a 281 98
a 281 320
a 281 143
a 281 240
a 281 21
a 281 22
a 281 485
a 281 127
a 281 128
a 281 23
a 281 392
a 281 164
a 281 244
a 281 251
a 281 254
a 281 255
a 281 361
a 281 25
a 281 479
a 281 480
a 281 256
a 281 26
a 281 257
a 281 260
a 281 261
a 281 263
a 281 264
a 281 406
a 281 265
a 281 266
a 281 365
a 281 407
a 281 267
a 281 268
a 281 27
a 281 269
a 281 270
a 281 271
a 281 272
a 281 110
a 281 28
a 281 273
a 281 30
a 281 275
a 281 167
a 281 276
a 281 168
a 281 31
a 281 169
a 281 277
a 281 325
a 281 409
a 281 326
a 281 327
a 281 328
a 281 278
a 281 368
a 281 279
a 281 329
a 281 369
a 281 411
a 281 384
a 281 412
a 281 413
a 281 414
a 281 370
a 281 280
a 281 119
a 281 6
a 281 318
a 281 149
a 281 64
a 281 65
a 281 66
a 281 84
a 281 138
a 281 150
a 281 139
a 281 220
a 281 386
a 281 228
a 281 13
a 281 105
a 281 232
a 281 106
a 281 158
a 281 14
a 281 15
a 281 133
a 281 134
a 281 16
a 281 159
a 281 161
a 281 162
a 281 252
a 281 253
a 281 322
a 281 460
a 281 362
a 281 323
a 281 363
a 281 461
a 281 274
a 281 366
a 281 282
a 281 330
a 281 371
a 281 283
a 281 415
a 281 32
a 281 33
a 281 34
a 281 285
a 281 466
a 281 372
a 281 286
a 281 287
a 281 288
a 281 289
a 281 290
a 281 467
a 281 419
a 281 35
a 281 292
a 281 111
a 281 294
a 281 296
a 281 297
a 281 37
a 281 171
a 281 299
a 281 38
a 281 172
a 281 301
a 281 304
a 281 306
a 281 307
a 281 427
a 281 394
a 281 174
a 281 429
a 281 112
a 281 175
a 281 176
a 281 135
a 281 177
a 281 179
a 281 136
a 281 41
a 281 113
a 281 42
a 281 43
a 281 44
a 281 46
a 281 114
a 281 47
a 281 48
a 281 49
a 281 115
a 281 50
a 281 51
a 281 52
a 281 53
a 281 54
a 281 55
a 281 181
a 281 56
a 281 57
a 281 58
a 281 59
a 281 60
a 281 99
a 281 183
a 281 61
a 281 62
a 281 184
a 281 63
a 281 185
a 281 170
a 281 373
a 281 420
a 281 422
a 281 468
a 281 423
a 281 291
a 281 425
a 281 298
a 281 426
a 281 300
a 281 302
a 281 303
a 281 471
a 281 305
a 281 173
a 281 144
a 281 45
a 281 436
a 172 137
a 172 6
a 172 317
a 172 217
a 172 346
a 172 439
a 172 348
a 172 64
a 172 65
a 172 10
a 172 102
a 172 151
a 172 218
a 172 225
a 172 141
a 172 142
a 172 154
a 172 14
a 172 15
a 172 17
a 172 236
a 172 108
a 172 21
a 172 22
a 172 128
a 172 244
a 172 249
a 172 253
a 172 255
a 172 260
a 172 27
a 172 462
a 172 275
a 172 167
a 172 276
a 172 168
a 172 277
a 172 409
a 172 326
a 172 278
a 172 279
a 172 280
a 172 281
a 172 283
a 172 34
a 172 284
a 172 285
a 172 372
a 172 287
a 172 289
a 172 419
a 172 111
a 172 294
a 172 37
a 172 299
a 172 38
a 172 300
a 172 119
a 172 147
a 172 318
a 172 148
a 172 149
a 172 66
a 172 84
a 172 138
a 172 150
a 172 220
a 172 228
a 172 13
a 172 400
a 172 105
a 172 232
a 172 106
a 172 157
a 172 158
a 172 107
a 172 133
a 172 134
a 172 16
a 172 159
a 172 160
a 172 235
a 172 240
a 172 127
a 172 161
a 172 162
a 172 163
a 172 164
a 172 165
a 172 252
a 172 25
a 172 256
a 172 26
a 172 460
a 172 362
a 172 257
a 172 258
a 172 259
a 172 261
a 172 262
a 172 263
a 172 264
a 172 406
a 172 265
a 172 266
a 172 323
a 172 363
a 172 461
a 172 267
a 172 269
a 172 271
a 172 272
a 172 110
a 172 29
a 172 273
a 172 274
a 172 366
a 172 30
a 172 31
a 172 368
a 172 329
a 172 411
a 172 282
a 172 32
a 172 33
a 172 286
a 172 288
a 172 290
a 172 422
a 172 35
a 172 292
a 172 295
a 172 296
a 172 297
a 172 425
a 172 171
a 172 301
a 172 306
a 172 307
a 172 394
a 172 174
a 172 428
a 172 429
a 172 112
a 172 175
a 172 176
a 172 135
a 172 177
a 172 178
a 172 179
a 172 136
a 172 41
a 172 113
a 172 42
a 172 43
a 172 44
a 172 45
a 172 180
a 172 46
a 172 114
a 172 47
a 172 48
a 172 49
a 172 115
a 172 50
a 172 51
a 172 52
a 172 53
a 172 54
a 172 55
a 172 181
a 172 56
a 172 57
a 172 58
a 172 59
a 172 60
a 172 99
a 172 183
a 172 61
a 172 62
a 172 184
a 172 63
a 172 185
a 172 302
a 172 304
a 302 137
a 302 119
a 302 147
a 302 6
a 302 318
a 302 7
a 302 148
a 302 217
a 302 149
a 302 64
a 302 65
a 302 66
a 302 84
a 302 138
a 302 10
a 302 102
a 302 150
a 302 397
a 302 220
a 302 153
a 302 104
a 302 222
a 302 223
a 302 225
a 302 228
a 302 12
a 302 398
a 302 231
a 302 399
a 302 402
a 302 451
a 302 105
a 302 232
a 302 106
a 302 14
a 302 15
a 302 133
a 302 134
a 302 16
a 302 159
a 302 17
a 302 319
a 302 96
a 302 20
a 302 236
a 302 240
a 302 21
a 302 22
a 302 127
a 302 128
a 302 23
a 302 161
a 302 162
a 302 164
a 302 244
a 302 354
a 302 356
a 302 165
a 302 251
a 302 252
a 302 253
a 302 254
a 302 322
a 302 255
a 302 25
a 302 256
a 302 26
a 302 460
a 302 260
a 302 261
a 302 263
a 302 264
a 302 265
a 302 266
a 302 323
a 302 363
a 302 461
a 302 364
a 302 365
a 302 407
a 302 267
a 302 268
a 302 27
a 302 269
a 302 408
a 302 271
a 302 110
a 302 273
a 302 366
a 302 30
a 302 464
a 302 275
a 302 167
a 302 276
a 302 168
a 302 277
a 302 410
a 302 326
a 302 327
a 302 328
a 302 278
a 302 368
a 302 279
a 302 329
a 302 280
a 302 281
a 302 282
a 302 330
a 302 283
a 302 415
a 302 32
a 302 34
a 302 284
a 302 285
a 302 372
a 302 286
a 302 287
a 302 288
a 302 289
a 302 290
a 302 331
a 302 35
a 302 291
a 302 292
a 302 111
a 302 293
a 302 294
a 302 295
a 302 296
a 302 297
a 302 36
a 302 425
a 302 38
a 302 172
a 302 301
a 302 303
a 302 173
a 302 306
a 302 307
a 302 427
a 302 394
a 302 174
a 302 429
a 302 112
a 302 175
a 302 176
a 302 135
a 302 177
a 302 178
a 302 179
a 302 136
a 302 376
a 302 40
a 302 41
a 302 113
a 302 42
a 302 43
a 302 44
a 302 180
a 302 46
a 302 114
a 302 47
a 302 48
a 302 49
a 302 115
a 302 50
a 302 51
a 302 52
a 302 53
a 302 54
a 302 55
a 302 181
a 302 56
a 302 57
a 302 58
a 302 59
a 302 60
a 302 99
a 302 183
a 302 61
a 302 62
a 302 184
a 302 63
a 302 185
a 302 436
a 303 137
a 303 302
a 303 119
a 303 6
a 303 148
a 303 64
a 303 65
a 303 66
a 303 84
a 303 10
a 303 102
a 303 377
a 303 349
a 303 477
a 303 378
a 303 11
a 303 103
a 303 219
a 303 220
a 303 386
a 303 153
a 303 104
a 303 222
a 303 223
a 303 225
a 303 226
a 303 12
a 303 229
a 303 230
a 303 398
a 303 231
a 303 399
a 303 401
a 303 105
a 303 232
a 303 233
a 303 106
a 303 107
a 303 14
a 303 133
a 303 134
a 303 16
a 303 17
a 303 96
a 303 236
a 303 240
a 303 21
a 303 22
a 303 127
a 303 128
a 303 23
a 303 164
a 303 251
a 303 253
a 303 254
a 303 255
a 303 256
a 303 26
a 303 460
a 303 260
a 303 261
a 303 263
a 303 264
a 303 265
a 303 266
a 303 323
a 303 364
a 303 365
a 303 407
a 303 267
a 303 268
a 303 27
a 303 269
a 303 408
a 303 271
a 303 110
a 303 273
a 303 274
a 303 366
a 303 30
a 303 275
a 303 167
a 303 276
a 303 168
a 303 277
a 303 279
a 303 281
a 303 282
a 303 330
a 303 283
a 303 32
a 303 33
a 303 34
a 303 285
a 303 287
a 303 289
a 303 290
a 303 331
a 303 373
a 303 420
a 303 423
a 303 35
a 303 291
a 303 292
a 303 111
a 303 294
a 303 36
a 303 37
a 303 171
a 303 299
a 303 38
a 303 472
a 303 173
a 303 306
a 303 427
a 303 394
a 303 174
a 303 429
a 303 112
a 303 175
a 303 135
a 303 376
a 303 309
a 303 41
a 303 113
a 303 42
a 303 43
a 303 44
a 303 46
a 303 114
a 303 47
a 303 48
a 303 49
a 303 115
a 303 50
a 303 51
a 303 52
a 303 53
a 303 54
a 303 55
a 303 181
a 303 56
a 303 57
a 303 58
a 303 59
a 303 60
a 303 99
a 303 183
a 303 61
a 303 62
a 303 63
a 303 185
a 307 137
a 307 317
a 307 186
a 307 188
a 307 189
a 307 332
a 307 190
a 307 191
a 307 192
a 307 193
a 307 194
a 307 196
a 307 197
a 307 198
a 307 199
a 307 200
a 307 201
a 307 202
a 307 335
a 307 336
a 307 203
a 307 207
a 307 208
a 307 209
a 307 438
a 307 210
a 307 211
a 307 212
a 307 214
a 307 215
a 307 345
a 307 217
a 307 439
a 307 348
a 307 64
a 307 65
a 307 69
a 307 70
a 307 73
a 307 74
a 307 76
a 307 79
a 307 80
a 307 84
a 307 95
a 307 151
a 307 218
a 307 139
a 307 350
a 307 451
a 307 140
a 307 141
a 307 142
a 307 17
a 307 18
a 307 19
a 307 319
a 307 20
a 307 236
a 307 237
a 307 238
a 307 239
a 307 97
a 307 108
a 307 98
a 307 320
a 307 143
a 307 240
a 307 21
a 307 22
a 307 127
a 307 128
a 307 164
a 307 109
a 307 244
a 307 253
a 307 255
a 307 25
a 307 480
a 307 256
a 307 26
a 307 27
a 307 269
a 307 270
a 307 271
a 307 272
a 307 273
a 307 30
a 307 275
a 307 167
a 307 276
a 307 168
a 307 277
a 307 410
a 307 279
a 307 280
a 307 281
a 307 330
a 307 283
a 307 415
a 307 32
a 307 418
a 307 285
a 307 466
a 307 372
a 307 286
a 307 287
a 307 288
a 307 289
a 307 290
a 307 419
a 307 422
a 307 423
a 307 292
a 307 294
a 307 297
a 307 425
a 307 37
a 307 299
a 307 38
a 307 300
a 307 172
a 307 301
a 307 302
a 307 304
a 307 306
a 307 119
a 307 6
a 307 148
a 307 346
a 307 66
a 307 138
a 307 10
a 307 102
a 307 150
a 307 397
a 307 477
a 307 378
a 307 220
a 307 104
a 307 225
a 307 13
a 307 105
a 307 232
a 307 106
a 307 158
a 307 107
a 307 14
a 307 15
a 307 133
a 307 134
a 307 16
a 307 159
a 307 235
a 307 23
a 307 251
a 307 252
a 307 460
a 307 362
a 307 257
a 307 260
a 307 261
a 307 263
a 307 264
a 307 406
a 307 265
a 307 266
a 307 323
a 307 363
a 307 461
a 307 129
a 307 110
a 307 28
a 307 29
a 307 274
a 307 366
a 307 367
a 307 368
a 307 329
a 307 411
a 307 384
a 307 370
a 307 282
a 307 371
a 307 33
a 307 34
a 307 284
a 307 35
a 307 111
a 307 293
a 307 295
a 307 296
a 307 36
a 307 470
a 307 427
a 307 144
a 307 394
a 307 174
a 307 428
a 307 429
a 307 112
a 307 175
a 307 375
a 307 176
a 307 135
a 307 177
a 307 179
a 307 136
a 307 474
a 307 39
a 307 309
a 307 40
a 307 41
a 307 113
a 307 42
a 307 43
a 307 44
a 307 45
a 307 46
a 307 114
a 307 47
a 307 48
a 307 49
a 307 115
a 307 50
a 307 51
a 307 52
a 307 53
a 307 54
a 307 55
a 307 181
a 307 56
a 307 57
a 307 58
a 307 59
a 307 60
a 307 311
a 307 99
a 307 183
a 307 61
a 307 62
a 307 184
a 307 63
a 307 185
a 307 312
a 181 137
a 181 6
a 181 314
a 181 315
a 181 316
a 181 318
a 181 317
a 181 7
a 181 8
a 181 186
a 181 187
a 181 188
a 181 189
a 181 332
a 181 190
a 181 193
a 181 194
a 181 196
a 181 197
a 181 198
a 181 199
a 181 200
a 181 201
a 181 202
a 181 203
a 181 205
a 181 340
a 181 148
a 181 342
a 181 212
a 181 213
a 181 344
a 181 217
a 181 346
a 181 439
a 181 149
a 181 347
a 181 348
a 181 64
a 181 65
a 181 66
a 181 382
a 181 122
a 181 123
a 181 67
a 181 124
a 181 68
a 181 125
a 181 69
a 181 70
a 181 71
a 181 72
a 181 383
a 181 73
a 181 74
a 181 75
a 181 76
a 181 77
a 181 78
a 181 79
a 181 80
a 181 81
a 181 82
a 181 83
a 181 84
a 181 85
a 181 387
a 181 86
a 181 138
a 181 10
a 181 126
a 181 88
a 181 89
a 181 90
a 181 91
a 181 101
a 181 92
a 181 93
a 181 440
a 181 94
a 181 95
a 181 102
a 181 150
a 181 388
a 181 389
a 181 151
a 181 397
a 181 218
a 181 390
a 181 377
a 181 441
a 181 349
a 181 477
a 181 378
a 181 442
a 181 11
a 181 139
a 181 103
a 181 443
a 181 444
a 181 482
a 181 219
a 181 220
a 181 386
a 181 350
a 181 152
a 181 153
a 181 445
a 181 446
a 181 483
a 181 391
a 181 221
a 181 104
a 181 222
a 181 379
a 181 223
a 181 224
a 181 225
a 181 226
a 181 227
a 181 380
a 181 228
a 181 381
a 181 12
a 181 13
a 181 229
a 181 447
a 181 448
a 181 230
a 181 398
a 181 231
a 181 449
a 181 399
a 181 400
a 181 401
a 181 402
a 181 450
a 181 451
a 181 140
a 181 141
a 181 142
a 181 105
a 181 232
a 181 233
a 181 154
a 181 155
a 181 106
a 181 156
a 181 157
a 181 158
a 181 107
a 181 234
a 181 14
a 181 15
a 181 403
a 181 133
a 181 134
a 181 484
a 181 16
a 181 159
a 181 404
a 181 160
a 181 405
a 181 452
a 181 453
a 181 17
a 181 18
a 181 19
a 181 319
a 181 96
a 181 235
a 181 352
a 181 20
a 181 236
a 181 237
a 181 238
a 181 239
a 181 97
a 181 108
a 181 98
a 181 320
a 181 143
a 181 240
a 181 21
a 181 241
a 181 242
a 181 22
a 181 353
a 181 127
a 181 128
a 181 23
a 181 392
a 181 456
a 181 243
a 181 457
a 181 458
a 181 161
a 181 459
a 181 162
a 181 163
a 181 164
a 181 109
a 181 244
a 181 245
a 181 354
a 181 246
a 181 355
a 181 356
a 181 357
a 181 358
a 181 247
a 181 165
a 181 248
a 181 249
a 181 250
a 181 166
a 181 359
a 181 321
a 181 251
a 181 252
a 181 253
a 181 24
a 181 254
a 181 360
a 181 322
a 181 255
a 181 361
a 181 25
a 181 256
a 181 26
a 181 460
a 181 362
a 181 257
a 181 258
a 181 259
a 181 260
a 181 261
a 181 263
a 181 264
a 181 406
a 181 265
a 181 266
a 181 323
a 181 363
a 181 461
a 181 129
a 181 324
a 181 364
a 181 365
a 181 407
a 181 267
a 181 268
a 181 27
a 181 269
a 181 408
a 181 462
a 181 270
a 181 271
a 181 272
a 181 130
a 181 110
a 181 463
a 181 28
a 181 29
a 181 273
a 181 274
a 181 366
a 181 30
a 181 464
a 181 275
a 181 367
a 181 167
a 181 276
a 181 168
a 181 31
a 181 169
a 181 277
a 181 325
a 181 409
a 181 410
a 181 326
a 181 327
a 181 328
a 181 278
a 181 368
a 181 279
a 181 329
a 181 369
a 181 411
a 181 384
a 181 412
a 181 413
a 181 414
a 181 370
a 181 280
a 181 281
a 181 282
a 181 330
a 181 371
a 181 283
a 181 415
a 181 32
a 181 33
a 181 34
a 181 284
a 181 416
a 181 417
a 181 418
a 181 170
a 181 393
a 181 465
a 181 285
a 181 466
a 181 372
a 181 286
a 181 287
a 181 288
a 181 289
a 181 290
a 181 331
a 181 467
a 181 419
a 181 373
a 181 420
a 181 421
a 181 422
a 181 468
a 181 469
a 181 423
a 181 35
a 181 291
a 181 292
a 181 111
a 181 424
a 181 293
a 181 294
a 181 295
a 181 296
a 181 297
a 181 36
a 181 470
a 181 425
a 181 37
a 181 171
a 181 298
a 181 426
a 181 299
a 181 38
a 181 300
a 181 172
a 181 301
a 181 302
a 181 303
a 181 304
a 181 471
a 181 472
a 181 305
a 181 173
a 181 306
a 181 307
a 181 427
a 181 144
a 181 394
a 181 374
a 181 174
a 181 428
a 181 429
a 181 112
a 181 175
a 181 375
a 181 176
a 181 430
a 181 431
a 181 308
a 181 473
a 181 135
a 181 177
a 181 178
a 181 179
a 181 136
a 181 474
a 181 432
a 181 39
a 181 376
a 181 433
a 181 309
a 181 40
a 181 41
a 181 113
a 181 42
a 181 43
a 181 44
a 181 45
a 181 180
a 181 46
a 181 114
a 181 47
a 181 48
a 181 49
a 181 115
a 181 50
a 181 51
a 181 52
a 181 53
a 181 434
a 181 54
a 181 55
a 181 119
a 181 147
a 181 56
a 181 57
a 181 58
a 181 59
a 181 60
a 181 99
a 181 183
a 181 61
a 181 62
a 181 184
a 181 63
a 181 185
a 181 435
a 181 311
a 181 182
a 181 312
a 181 116
a 181 396
a 181 385
a 181 313
a 181 476
a 181 436
a 183 137
a 183 6
a 183 314
a 183 315
a 183 316
a 183 318
a 183 317
a 183 7
a 183 186
a 183 188
a 183 189
a 183 332
a 183 193
a 183 196
a 183 197
a 183 198
a 183 199
a 183 205
a 183 340
a 183 148
a 183 344
a 183 217
a 183 346
a 183 149
a 183 347
a 183 64
a 183 65
a 183 66
a 183 123
a 183 67
a 183 68
a 183 69
a 183 70
a 183 73
a 183 74
a 183 78
a 183 81
a 183 82
a 183 83
a 183 84
a 183 387
a 183 86
a 183 10
a 183 126
a 183 90
a 183 92
a 183 93
a 183 95
a 183 102
a 183 389
a 183 151
a 183 218
a 183 377
a 183 219
a 183 220
a 183 386
a 183 350
a 183 446
a 183 221
a 183 104
a 183 222
a 183 223
a 183 224
a 183 225
a 183 227
a 183 12
a 183 229
a 183 230
a 183 398
a 183 231
a 183 399
a 183 400
a 183 401
a 183 402
a 183 450
a 183 451
a 183 140
a 183 141
a 183 142
a 183 105
a 183 232
a 183 233
a 183 154
a 183 155
a 183 106
a 183 158
a 183 107
a 183 234
a 183 14
a 183 15
a 183 133
a 183 134
a 183 159
a 183 404
a 183 17
a 183 18
a 183 19
a 183 319
a 183 96
a 183 235
a 183 352
a 183 20
a 183 236
a 183 237
a 183 238
a 183 239
a 183 97
a 183 108
a 183 98
a 183 320
a 183 143
a 183 240
a 183 21
a 183 241
a 183 242
a 183 22
a 183 353
a 183 127
a 183 128
a 183 23
a 183 243
a 183 164
a 183 109
a 183 244
a 183 249
a 183 250
a 183 251
a 183 252
a 183 253
a 183 255
a 183 25
a 183 479
a 183 480
a 183 256
a 183 26
a 183 257
a 183 260
a 183 263
a 183 264
a 183 406
a 183 265
a 183 266
a 183 129
a 183 407
a 183 267
a 183 268
a 183 27
a 183 269
a 183 270
a 183 271
a 183 272
a 183 110
a 183 28
a 183 273
a 183 366
a 183 30
a 183 275
a 183 367
a 183 167
a 183 276
a 183 168
a 183 31
a 183 169
a 183 277
a 183 325
a 183 409
a 183 326
a 183 328
a 183 278
a 183 368
a 183 279
a 183 329
a 183 384
a 183 412
a 183 370
a 183 280
a 183 281
a 183 282
a 183 330
a 183 283
a 183 32
a 183 33
a 183 34
a 183 284
a 183 416
a 183 417
a 183 285
a 183 372
a 183 286
a 183 287
a 183 288
a 183 289
a 183 290
a 183 331
a 183 467
a 183 419
a 183 373
a 183 420
a 183 421
a 183 422
a 183 468
a 183 423
a 183 35
a 183 291
a 183 292
a 183 111
a 183 424
a 183 293
a 183 294
a 183 295
a 183 296
a 183 297
a 183 36
a 183 470
a 183 425
a 183 37
a 183 171
a 183 298
a 183 426
a 183 299
a 183 38
a 183 300
a 183 172
a 183 301
a 183 302
a 183 303
a 183 304
a 183 471
a 183 472
a 183 173
a 183 306
a 183 307
a 183 144
a 183 394
a 183 374
a 183 174
a 183 428
a 183 429
a 183 112
a 183 175
a 183 431
a 183 308
a 183 135
a 183 432
a 183 40
a 183 41
a 183 113
a 183 42
a 183 43
a 183 44
a 183 180
a 183 46
a 183 114
a 183 48
a 183 49
a 183 115
a 183 50
a 183 51
a 183 52
a 183 53
a 183 434
a 183 54
a 183 55
a 183 181
a 183 56
a 183 57
a 183 58
a 183 59
a 183 60
a 183 311
a 183 99
a 183 182
a 183 312
a 183 116
a 183 4
a 183 119
a 183 147
a 183 77
a 183 138
a 183 150
a 183 157
a 183 403
a 183 16
a 183 160
a 183 405
a 183 161
a 183 162
a 183 163
a 183 165
a 183 29
a 183 170
a 183 176
a 183 177
a 183 178
a 183 179
a 183 136
a 183 39
a 183 45
a 183 47
a 183 61
a 183 62
a 183 184
a 183 63
a 183 436
a 184 137
a 184 6
a 184 314
a 184 315
a 184 316
a 184 318
a 184 317
a 184 7
a 184 8
a 184 186
a 184 187
a 184 188
a 184 189
a 184 332
a 184 190
a 184 193
a 184 194
a 184 196
a 184 197
a 184 198
a 184 199
a 184 200
a 184 201
a 184 202
a 184 203
a 184 205
a 184 340
a 184 148
a 184 342
a 184 212
a 184 213
a 184 344
a 184 346
a 184 64
a 184 65
a 184 66
a 184 123
a 184 67
a 184 124
a 184 68
a 184 125
a 184 69
a 184 70
a 184 72
a 184 383
a 184 73
a 184 74
a 184 75
a 184 77
a 184 78
a 184 80
a 184 81
a 184 82
a 184 83
a 184 84
a 184 85
a 184 86
a 184 10
a 184 126
a 184 90
a 184 91
a 184 95
a 184 102
a 184 151
a 184 218
a 184 377
a 184 139
a 184 219
a 184 220
a 184 350
a 184 221
a 184 104
a 184 222
a 184 223
a 184 224
a 184 225
a 184 12
a 184 229
a 184 230
a 184 398
a 184 231
a 184 401
a 184 140
a 184 141
a 184 142
a 184 233
a 184 154
a 184 155
a 184 156
a 184 107
a 184 234
a 184 15
a 184 403
a 184 133
a 184 134
a 184 16
a 184 159
a 184 405
a 184 17
a 184 18
a 184 19
a 184 319
a 184 235
a 184 455
a 184 20
a 184 236
a 184 237
a 184 238
a 184 239
a 184 97
a 184 108
a 184 98
a 184 320
a 184 143
a 184 240
a 184 21
a 184 241
a 184 242
a 184 22
a 184 127
a 184 128
a 184 243
a 184 164
a 184 109
a 184 244
a 184 248
a 184 249
a 184 250
a 184 359
a 184 24
a 184 255
a 184 361
a 184 25
a 184 256
a 184 26
a 184 257
a 184 258
a 184 259
a 184 260
a 184 261
a 184 263
a 184 264
a 184 265
a 184 129
a 184 267
a 184 268
a 184 27
a 184 269
a 184 270
a 184 271
a 184 272
a 184 110
a 184 28
a 184 273
a 184 274
a 184 30
a 184 275
a 184 167
a 184 276
a 184 168
a 184 31
a 184 277
a 184 278
a 184 279
a 184 280
a 184 281
a 184 282
a 184 283
a 184 34
a 184 284
a 184 285
a 184 288
a 184 289
a 184 291
a 184 292
a 184 111
a 184 293
a 184 294
a 184 296
a 184 297
a 184 299
a 184 38
a 184 300
a 184 172
a 184 301
a 184 302
a 184 305
a 184 306
a 184 307
a 184 427
a 184 144
a 184 394
a 184 374
a 184 174
a 184 428
a 184 429
a 184 112
a 184 175
a 184 308
a 184 135
a 184 40
a 184 41
a 184 113
a 184 42
a 184 43
a 184 44
a 184 45
a 184 180
a 184 46
a 184 114
a 184 47
a 184 48
a 184 49
a 184 115
a 184 50
a 184 51
a 184 52
a 184 53
a 184 434
a 184 54
a 184 55
a 184 181
a 184 435
a 184 56
a 184 57
a 184 58
a 184 59
a 184 60
a 184 311
a 184 99
a 184 182
a 184 312
a 184 116
a 184 183
a 184 61
a 184 396
a 184 62
a 184 436
a 184 131
a 184 119
a 184 147
a 184 210
a 184 345
a 184 138
a 184 150
a 184 152
a 184 105
a 184 232
a 184 106
a 184 157
a 184 158
a 184 160
a 184 161
a 184 166
a 184 253
a 184 169
a 184 32
a 184 372
a 184 35
a 184 36
a 184 173
a 184 176
a 184 177
a 184 178
a 184 179
a 184 136
a 184 39
a 184 63
a 185 137
a 185 6
a 185 314
a 185 315
a 185 316
a 185 318
a 185 317
a 185 7
a 185 8
a 185 186
a 185 187
a 185 188
a 185 189
a 185 332
a 185 190
a 185 191
a 185 193
a 185 194
a 185 195
a 185 196
a 185 197
a 185 198
a 185 199
a 185 200
a 185 201
a 185 202
a 185 203
a 185 204
a 185 205
a 185 206
a 185 337
a 185 338
a 185 437
a 185 207
a 185 208
a 185 209
a 185 340
a 185 148
a 185 341
a 185 395
a 185 342
a 185 210
a 185 212
a 185 213
a 185 343
a 185 214
a 185 215
a 185 344
a 185 216
a 185 345
a 185 217
a 185 346
a 185 439
a 185 149
a 185 347
a 185 348
a 185 64
a 185 65
a 185 66
a 185 382
a 185 122
a 185 123
a 185 67
a 185 124
a 185 68
a 185 125
a 185 69
a 185 70
a 185 71
a 185 72
a 185 383
a 185 73
a 185 74
a 185 75
a 185 76
a 185 77
a 185 78
a 185 79
a 185 80
a 185 81
a 185 83
a 185 84
a 185 85
a 185 387
a 185 86
a 185 87
a 185 10
a 185 126
a 185 88
a 185 89
a 185 90
a 185 91
a 185 101
a 185 92
a 185 93
a 185 95
a 185 102
a 185 150
a 185 388
a 185 389
a 185 151
a 185 397
a 185 218
a 185 390
a 185 377
a 185 478
a 185 349
a 185 477
a 185 378
a 185 442
a 185 11
a 185 139
a 185 103
a 185 444
a 185 219
a 185 220
a 185 386
a 185 350
a 185 152
a 185 445
a 185 446
a 185 391
a 185 221
a 185 104
a 185 222
a 185 379
a 185 223
a 185 225
a 185 227
a 185 228
a 185 381
a 185 12
a 185 13
a 185 229
a 185 447
a 185 448
a 185 230
a 185 398
a 185 231
a 185 399
a 185 400
a 185 401
a 185 402
a 185 450
a 185 451
a 185 140
a 185 141
a 185 142
a 185 105
a 185 232
a 185 233
a 185 154
a 185 155
a 185 106
a 185 156
a 185 158
a 185 107
a 185 14
a 185 15
a 185 133
a 185 134
a 185 16
a 185 159
a 185 404
a 185 17
a 185 18
a 185 19
a 185 319
a 185 96
a 185 235
a 185 352
a 185 455
a 185 20
a 185 236
a 185 237
a 185 238
a 185 239
a 185 97
a 185 108
a 185 98
a 185 320
a 185 143
a 185 240
a 185 241
a 185 242
a 185 22
a 185 485
a 185 127
a 185 128
a 185 23
a 185 392
a 185 456
a 185 243
a 185 458
a 185 161
a 185 163
a 185 164
a 185 109
a 185 244
a 185 246
a 185 356
a 185 357
a 185 247
a 185 165
a 185 250
a 185 359
a 185 251
a 185 252
a 185 253
a 185 24
a 185 254
a 185 360
a 185 322
a 185 255
a 185 361
a 185 25
a 185 256
a 185 26
a 185 362
a 185 257
a 185 258
a 185 259
a 185 260
a 185 261
a 185 262
a 185 263
a 185 264
a 185 406
a 185 265
a 185 266
a 185 323
a 185 363
a 185 461
a 185 129
a 185 324
a 185 364
a 185 365
a 185 407
a 185 267
a 185 268
a 185 27
a 185 269
a 185 408
a 185 462
a 185 270
a 185 271
a 185 272
a 185 130
a 185 110
a 185 463
a 185 28
a 185 29
a 185 273
a 185 274
a 185 366
a 185 30
a 185 464
a 185 275
a 185 367
a 185 167
a 185 276
a 185 168
a 185 31
a 185 169
a 185 277
a 185 325
a 185 409
a 185 410
a 185 326
a 185 327
a 185 328
a 185 278
a 185 368
a 185 279
a 185 329
a 185 369
a 185 411
a 185 384
a 185 412
a 185 413
a 185 414
a 185 370
a 185 280
a 185 281
a 185 282
a 185 330
a 185 371
a 185 283
a 185 415
a 185 32
a 185 33
a 185 34
a 185 284
a 185 416
a 185 417
a 185 418
a 185 170
a 185 393
a 185 465
a 185 285
a 185 466
a 185 372
a 185 286
a 185 287
a 185 288
a 185 289
a 185 290
a 185 331
a 185 467
a 185 419
a 185 373
a 185 420
a 185 421
a 185 422
a 185 468
a 185 469
a 185 423
a 185 35
a 185 291
a 185 292
a 185 111
a 185 424
a 185 293
a 185 294
a 185 295
a 185 296
a 185 297
a 185 36
a 185 470
a 185 425
a 185 37
a 185 171
a 185 298
a 185 426
a 185 299
a 185 38
a 185 300
a 185 172
a 185 301
a 185 302
a 185 303
a 185 304
a 185 471
a 185 472
a 185 305
a 185 173
a 185 306
a 185 307
a 185 427
a 185 144
a 185 394
a 185 174
a 185 428
a 185 429
a 185 112
a 185 175
a 185 375
a 185 176
a 185 430
a 185 431
a 185 308
a 185 473
a 185 135
a 185 177
a 185 178
a 185 179
a 185 136
a 185 475
a 185 376
a 185 40
a 185 41
a 185 113
a 185 42
a 185 44
a 185 114
a 185 47
a 185 48
a 185 49
a 185 115
a 185 181
a 185 56
a 185 57
a 185 58
a 185 60
a 149 6
a 149 317
a 149 186
a 149 193
a 149 196
a 149 197
a 149 340
a 149 148
a 149 344
a 149 217
a 149 318
a 149 84
a 149 10
a 149 102
a 149 222
a 149 232
a 149 106
a 149 107
a 149 14
a 149 16
a 149 235
a 149 108
a 149 21
a 149 22
a 149 127
a 149 128
a 149 164
a 149 251
a 149 255
a 149 256
a 149 26
a 149 460
a 149 263
a 149 264
a 149 406
a 149 266
a 149 363
a 149 461
a 149 271
a 149 272
a 149 110
a 149 274
a 149 366
a 149 30
a 149 279
a 149 282
a 149 34
a 149 111
a 149 296
a 149 297
a 149 38
a 149 112
a 149 309
a 149 41
a 149 113
a 149 42
a 149 43
a 149 44
a 149 46
a 149 114
a 149 47
a 149 48
a 149 49
a 149 115
a 149 50
a 149 51
a 149 52
a 149 53
a 149 54
a 149 55
a 149 181
a 149 56
a 149 57
a 149 58
a 149 59
a 149 60
a 149 99
a 149 183
a 149 61
a 149 62
a 149 63
a 149 185
a 149 347
a 149 348
a 149 64
a 149 68
a 149 151
a 149 220
a 149 141
a 149 15
a 149 17
a 149 236
a 149 97
a 149 240
a 149 250
a 149 267
a 149 27
a 149 276
a 149 31
a 149 277
a 149 409
a 149 280
a 149 281
a 149 284
a 149 285
a 149 289
a 149 293
a 149 294
a 149 299
a 149 300
a 149 172
a 149 301
a 149 302
a 149 180
a 149 434
a 149 311
a 149 182
a 149 312
a 149 116
a 150 6
a 150 317
a 150 186
a 150 188
a 150 189
a 150 193
a 150 196
a 150 197
a 150 198
a 150 205
a 150 340
a 150 148
a 150 344
a 150 217
a 150 346
a 150 64
a 150 68
a 150 126
a 150 118
a 150 80
a 150 10
a 150 102
a 150 389
a 150 220
a 150 13
a 150 141
a 150 106
a 150 107
a 150 134
a 150 16
a 150 108
a 150 21
a 150 22
a 150 128
a 150 164
a 150 253
a 150 25
a 150 28
a 150 367
a 150 34
a 150 38
a 150 41
a 150 113
a 150 42
a 150 44
a 150 46
a 150 114
a 150 47
a 150 48
a 150 49
a 150 115
a 150 50
a 150 51
a 150 52
a 150 53
a 150 54
a 150 55
a 150 181
a 150 56
a 150 57
a 150 58
a 150 59
a 150 60
a 150 99
a 150 61
a 150 62
a 150 63
a 150 185
a 150 151
a 150 218
a 150 142
a 150 15
a 150 133
a 150 17
a 150 236
a 150 239
a 150 97
a 150 143
a 150 240
a 150 127
a 150 250
a 150 255
a 150 256
a 150 267
a 150 27
a 150 269
a 150 31
a 150 277
a 150 278
a 150 279
a 150 280
a 150 281
a 150 284
a 150 170
a 150 285
a 150 286
a 150 288
a 150 289
a 150 290
a 150 293
a 150 294
a 150 296
a 150 297
a 150 299
a 150 300
a 150 172
a 150 301
a 150 302
a 150 307
a 150 112
a 150 180
a 150 434
a 150 311
a 150 182
a 150 312
a 150 116
a 150 183
a 150 184
a 154 6
a 154 318
a 154 317
a 154 7
a 154 186
a 154 187
a 154 188
a 154 189
a 154 332
a 154 190
a 154 191
a 154 192
a 154 193
a 154 194
a 154 195
a 154 196
a 154 333
a 154 197
a 154 198
a 154 199
a 154 200
a 154 334
a 154 201
a 154 202
a 154 203
a 154 204
a 154 205
a 154 206
a 154 337
a 154 338
a 154 207
a 154 208
a 154 209
a 154 339
a 154 340
a 154 148
a 154 341
a 154 9
a 154 212
a 154 214
a 154 344
a 154 345
a 154 217
a 154 346
a 154 64
a 154 65
a 154 66
a 154 382
a 154 122
a 154 123
a 154 67
a 154 124
a 154 68
a 154 125
a 154 69
a 154 70
a 154 71
a 154 72
a 154 383
a 154 73
a 154 74
a 154 75
a 154 76
a 154 77
a 154 78
a 154 80
a 154 81
a 154 82
a 154 84
a 154 85
a 154 387
a 154 86
a 154 138
a 154 10
a 154 126
a 154 88
a 154 91
a 154 92
a 154 93
a 154 94
a 154 95
a 154 388
a 154 151
a 154 218
a 154 377
a 154 441
a 154 349
a 154 477
a 154 139
a 154 219
a 154 220
a 154 350
a 154 391
a 154 221
a 154 104
a 154 223
a 154 224
a 154 225
a 154 12
a 154 229
a 154 447
a 154 448
a 154 230
a 154 140
a 154 141
a 154 142
a 154 105
a 154 232
a 154 316
a 154 102
a 154 397
a 154 378
a 154 103
a 154 228
a 154 155
a 154 106
a 154 158
a 154 107
a 154 14
a 154 133
a 154 134
a 154 484
a 154 16
a 154 159
a 154 404
a 154 160
a 154 452
a 154 453
a 154 454
a 154 17
a 154 96
a 154 352
a 154 20
a 154 236
a 154 108
a 154 240
a 154 21
a 154 22
a 154 127
a 154 128
a 154 164
a 154 251
a 154 252
a 154 253
a 154 24
a 154 322
a 154 255
a 154 258
a 154 260
a 154 261
a 154 263
a 154 264
a 154 406
a 154 266
a 154 129
a 154 271
a 154 110
a 154 30
a 154 367
a 154 167
a 154 279
a 154 412
a 154 414
a 154 370
a 154 281
a 154 32
a 154 34
a 154 111
a 154 296
a 154 297
a 154 172
a 154 144
a 154 394
a 154 428
a 154 112
a 154 135
a 154 179
a 154 136
a 154 41
a 154 113
a 154 42
a 154 43
a 154 44
a 154 46
a 154 114
a 154 47
a 154 48
a 154 49
a 154 115
a 154 50
a 154 51
a 154 52
a 154 53
a 154 54
a 154 55
a 154 181
a 154 56
a 154 57
a 154 58
a 154 59
a 154 60
a 154 99
a 154 183
a 154 61
a 154 62
a 154 184
a 154 63
a 154 185
a 154 156
a 154 157
a 154 234
a 154 15
a 154 403
a 154 405
a 154 18
a 154 351
a 154 19
a 154 319
a 154 235
a 154 237
a 154 238
a 154 239
a 154 97
a 154 98
a 154 320
a 154 143
a 154 241
a 154 242
a 154 353
a 154 485
a 154 23
a 154 456
a 154 243
a 154 457
a 154 161
a 154 109
a 154 250
a 154 166
a 154 359
a 154 254
a 154 360
a 154 256
a 154 267
a 154 408
a 154 272
a 154 130
a 154 28
a 154 273
a 154 274
a 154 366
a 154 275
a 154 276
a 154 31
a 154 277
a 154 409
a 154 278
a 154 282
a 154 330
a 154 283
a 154 415
a 154 284
a 154 170
a 154 285
a 154 286
a 154 287
a 154 290
a 154 422
a 154 292
a 154 293
a 154 294
a 154 295
a 154 299
a 154 38
a 154 300
a 154 301
a 154 304
a 154 305
a 154 306
a 154 427
a 154 374
a 154 429
a 154 175
a 154 40
a 154 180
a 154 434
a 154 435
a 154 182
a 154 312
a 154 116
a 154 396
a 154 385
a 154 476
a 154 436
a 157 6
a 157 317
a 157 186
a 157 193
a 157 196
a 157 197
a 157 340
a 157 148
a 157 217
a 157 64
a 157 68
a 157 81
a 157 126
a 157 151
a 157 220
a 157 105
a 157 10
a 157 102
a 157 397
a 157 477
a 157 378
a 157 141
a 157 142
a 157 154
a 157 106
a 157 107
a 157 134
a 157 16
a 157 159
a 157 404
a 157 17
a 157 96
a 157 352
a 157 240
a 157 21
a 157 128
a 157 253
a 157 255
a 157 167
a 157 414
a 157 370
a 157 32
a 157 34
a 157 112
a 157 41
a 157 113
a 157 42
a 157 43
a 157 44
a 157 46
a 157 114
a 157 47
a 157 49
a 157 50
a 157 51
a 157 52
a 157 53
a 157 54
a 157 55
a 157 181
a 157 56
a 157 57
a 157 58
a 157 59
a 157 60
a 157 99
a 157 61
a 157 396
a 157 62
a 157 63
a 157 158
a 157 234
a 157 97
a 157 243
a 157 256
a 157 277
a 157 279
a 157 284
a 157 285
a 157 293
a 157 294
a 157 297
a 157 299
a 157 38
a 157 300
a 157 172
a 157 301
a 157 304
a 157 305
a 157 306
a 157 427
a 157 175
a 157 180
a 157 48
a 157 115
a 157 434
a 157 182
a 157 312
a 157 116
a 157 183
a 157 385
a 157 476
a 157 436
a 157 184
a 160 6
a 160 317
a 160 186
a 160 193
a 160 196
a 160 197
a 160 340
a 160 148
a 160 344
a 160 217
a 160 64
a 160 68
a 160 81
a 160 126
a 160 151
a 160 218
a 160 220
a 160 140
a 160 141
a 160 142
a 160 154
a 160 155
a 160 107
a 160 234
a 160 14
a 160 15
a 160 403
a 160 134
a 160 484
a 160 16
a 160 10
a 160 102
a 160 106
a 160 404
a 160 452
a 160 453
a 160 17
a 160 352
a 160 237
a 160 21
a 160 22
a 160 128
a 160 253
a 160 263
a 160 264
a 160 406
a 160 28
a 160 370
a 160 34
a 160 112
a 160 41
a 160 113
a 160 42
a 160 44
a 160 46
a 160 114
a 160 47
a 160 48
a 160 49
a 160 115
a 160 50
a 160 51
a 160 52
a 160 53
a 160 54
a 160 55
a 160 181
a 160 56
a 160 57
a 160 58
a 160 59
a 160 60
a 160 311
a 160 99
a 160 61
a 160 62
a 160 63
a 160 97
a 160 143
a 160 240
a 160 127
a 160 243
a 160 255
a 160 256
a 160 267
a 160 272
a 160 367
a 160 277
a 160 279
a 160 284
a 160 285
a 160 111
a 160 293
a 160 294
a 160 296
a 160 297
a 160 299
a 160 38
a 160 300
a 160 172
a 160 301
a 160 43
a 160 180
a 160 434
a 160 182
a 160 312
a 160 116
a 160 183
a 160 396
a 160 385
a 160 476
a 160 436
a 160 184
a 96 6
a 96 186
a 96 187
a 96 188
a 96 189
a 96 332
a 96 190
a 96 191
a 96 192
a 96 193
a 96 194
a 96 195
a 96 196
a 96 333
a 96 197
a 96 198
a 96 199
a 96 200
a 96 201
a 96 202
a 96 203
a 96 204
a 96 206
a 96 207
a 96 209
a 96 340
a 96 148
a 96 341
a 96 9
a 96 395
a 96 342
a 96 438
a 96 210
a 96 212
a 96 213
a 96 214
a 96 215
a 96 344
a 96 345
a 96 95
a 96 151
a 96 441
a 96 349
a 96 477
a 96 378
a 96 139
a 96 220
a 96 152
a 96 391
a 96 221
a 96 104
a 96 222
a 96 223
a 96 224
a 96 225
a 96 226
a 96 227
a 96 228
a 96 381
a 96 12
a 96 229
a 96 447
a 96 448
a 96 230
a 96 231
a 96 449
a 96 400
a 96 401
a 96 140
a 96 141
a 96 142
a 96 105
a 96 232
a 96 233
a 96 154
a 96 155
a 96 106
a 96 156
a 96 157
a 96 158
a 96 107
a 96 403
a 96 134
a 96 16
a 96 159
a 96 405
a 96 452
a 96 17
a 96 319
a 96 2
a 96 1
a 96 100
a 96 146
a 96 132
a 96 121
a 96 137
a 96 316
a 96 318
a 96 317
a 96 7
a 96 64
a 96 123
a 96 68
a 96 80
a 96 83
a 96 84
a 96 10
a 96 90
a 96 91
a 96 101
a 96 102
a 96 397
a 96 219
a 96 404
a 96 18
a 96 455
a 96 20
a 96 236
a 96 237
a 96 239
a 96 97
a 96 108
a 96 98
a 96 320
a 96 143
a 96 240
a 96 21
a 96 22
a 96 127
a 96 128
a 96 392
a 96 164
a 96 24
a 96 255
a 96 25
a 96 256
a 96 460
a 96 362
a 96 258
a 96 259
a 96 261
a 96 129
a 96 324
a 96 110
a 96 28
a 96 273
a 96 30
a 96 275
a 96 167
a 96 328
a 96 279
a 96 280
a 96 281
a 96 32
a 96 34
a 96 111
a 96 297
a 96 38
a 96 394
a 96 429
a 96 112
a 96 135
a 96 40
a 96 41
a 96 113
a 96 42
a 96 43
a 96 44
a 96 45
a 96 46
a 96 114
a 96 47
a 96 48
a 96 49
a 96 115
a 96 50
a 96 51
a 96 52
a 96 53
a 96 54
a 96 55
a 96 181
a 96 56
a 96 57
a 96 58
a 96 59
a 96 60
a 96 99
a 96 183
a 96 61
a 96 62
a 96 63
a 96 185
a 96 353
a 96 243
a 96 457
a 96 459
a 96 162
a 96 244
a 96 251
a 96 252
a 96 253
a 96 254
a 96 360
a 96 322
a 96 361
a 96 268
a 96 272
a 96 367
a 96 330
a 96 284
a 96 170
a 96 285
a 96 420
a 96 421
a 96 422
a 96 468
a 96 35
a 96 291
a 96 292
a 96 293
a 96 294
a 96 296
a 96 299
a 96 300
a 96 301
a 96 302
a 96 303
a 96 305
a 96 308
a 96 473
a 96 136
a 96 39
a 96 309
a 96 434
a 96 182
a 96 312
a 96 116
a 96 436
a 161 6
a 161 317
a 161 186
a 161 188
a 161 193
a 161 196
a 161 197
a 161 205
a 161 340
a 161 148
a 161 344
a 161 217
a 161 346
a 161 64
a 161 68
a 161 126
a 161 151
a 161 220
a 161 350
a 161 141
a 161 142
a 161 107
a 161 234
a 161 15
a 161 133
a 161 134
a 161 17
a 161 236
a 161 239
a 161 97
a 161 143
a 161 240
a 161 21
a 161 22
a 161 127
a 161 128
a 161 10
a 161 102
a 161 397
a 161 218
a 161 390
a 161 441
a 161 378
a 161 11
a 161 139
a 161 446
a 161 104
a 161 222
a 161 225
a 161 228
a 161 12
a 161 232
a 161 154
a 161 106
a 161 16
a 161 392
a 161 253
a 161 25
a 161 460
a 161 110
a 161 28
a 161 273
a 161 30
a 161 167
a 161 34
a 161 420
a 161 174
a 161 112
a 161 432
a 161 40
a 161 41
a 161 113
a 161 42
a 161 44
a 161 46
a 161 114
a 161 47
a 161 48
a 161 49
a 161 115
a 161 50
a 161 51
a 161 52
a 161 53
a 161 54
a 161 55
a 161 181
a 161 56
a 161 57
a 161 58
a 161 59
a 161 60
a 161 99
a 161 61
a 161 62
a 161 63
a 161 185
a 161 459
a 161 250
a 161 255
a 161 256
a 161 267
a 161 27
a 161 31
a 161 277
a 161 278
a 161 279
a 161 280
a 161 281
a 161 284
a 161 170
a 161 285
a 161 286
a 161 288
a 161 289
a 161 290
a 161 293
a 161 294
a 161 296
a 161 297
a 161 299
a 161 38
a 161 300
a 161 172
a 161 301
a 161 302
a 161 431
a 161 135
a 161 180
a 161 434
a 161 311
a 161 182
a 161 312
a 161 116
a 161 183
a 161 184
a 162 6
a 162 317
a 162 186
a 162 188
a 162 193
a 162 196
a 162 197
a 162 205
a 162 340
a 162 148
a 162 344
a 162 217
a 162 346
a 162 64
a 162 68
a 162 151
a 162 220
a 162 141
a 162 107
a 162 234
a 162 15
a 162 133
a 162 17
a 162 236
a 162 97
a 162 143
a 162 240
a 162 21
a 162 22
a 162 127
a 162 128
a 162 10
a 162 102
a 162 397
a 162 390
a 162 378
a 162 11
a 162 139
a 162 219
a 162 446
a 162 104
a 162 222
a 162 12
a 162 142
a 162 155
a 162 16
a 162 96
a 162 320
a 162 392
a 162 459
a 162 163
a 162 164
a 162 253
a 162 25
a 162 261
a 162 263
a 162 363
a 162 271
a 162 110
a 162 28
a 162 273
a 162 30
a 162 167
a 162 34
a 162 420
a 162 429
a 162 375
a 162 430
a 162 432
a 162 40
a 162 41
a 162 113
a 162 42
a 162 44
a 162 46
a 162 114
a 162 49
a 162 115
a 162 50
a 162 51
a 162 53
a 162 54
a 162 55
a 162 181
a 162 56
a 162 57
a 162 58
a 162 59
a 162 60
a 162 99
a 162 61
a 162 62
a 162 63
a 162 250
a 162 255
a 162 256
a 162 267
a 162 27
a 162 366
a 162 31
a 162 277
a 162 278
a 162 280
a 162 281
a 162 284
a 162 170
a 162 285
a 162 286
a 162 288
a 162 289
a 162 290
a 162 293
a 162 294
a 162 296
a 162 297
a 162 299
a 162 38
a 162 300
a 162 172
a 162 301
a 162 302
a 162 174
a 162 112
a 162 175
a 162 176
a 162 180
a 162 47
a 162 48
a 162 52
a 162 434
a 162 311
a 162 182
a 162 312
a 162 116
a 162 183
a 166 6
a 166 314
a 166 315
a 166 318
a 166 7
a 166 186
a 166 187
a 166 188
a 166 189
a 166 332
a 166 190
a 166 191
a 166 192
a 166 193
a 166 194
a 166 195
a 166 196
a 166 333
a 166 197
a 166 198
a 166 199
a 166 200
a 166 201
a 166 203
a 166 204
a 166 206
a 166 207
a 166 208
a 166 209
a 166 339
a 166 340
a 166 148
a 166 213
a 166 83
a 166 12
a 166 140
a 166 141
a 166 142
a 166 233
a 166 17
a 166 18
a 166 19
a 166 319
a 166 20
a 166 236
a 166 237
a 166 97
a 166 108
a 166 320
a 166 240
a 166 21
a 166 242
a 166 392
a 166 164
a 166 109
a 166 246
a 166 356
a 166 357
a 166 316
a 166 10
a 166 104
a 166 228
a 166 154
a 166 155
a 166 107
a 166 16
a 166 235
a 166 22
a 166 127
a 166 244
a 166 249
a 166 250
a 166 251
a 166 253
a 166 24
a 166 360
a 166 255
a 166 256
a 166 26
a 166 260
a 166 265
a 166 266
a 166 267
a 166 28
a 166 30
a 166 168
a 166 277
a 166 279
a 166 32
a 166 34
a 166 287
a 166 292
a 166 38
a 166 394
a 166 41
a 166 113
a 166 42
a 166 43
a 166 44
a 166 46
a 166 114
a 166 47
a 166 48
a 166 49
a 166 115
a 166 50
a 166 52
a 166 53
a 166 54
a 166 55
a 166 181
a 166 56
a 166 57
a 166 58
a 166 59
a 166 60
a 166 61
a 166 62
a 166 63
a 166 252
a 166 254
a 166 361
a 166 25
a 166 257
a 166 261
a 166 264
a 166 269
a 166 270
a 166 271
a 166 272
a 166 275
a 166 167
a 166 329
a 166 184
a 169 6
a 169 400
a 169 107
a 169 128
a 169 255
a 169 256
a 169 26
a 169 365
a 169 272
a 169 110
a 169 28
a 169 29
a 169 30
a 169 275
a 169 168
a 169 31
a 169 318
a 169 148
a 169 74
a 169 84
a 169 10
a 169 102
a 169 378
a 169 104
a 169 13
a 169 105
a 169 232
a 169 106
a 169 133
a 169 16
a 169 17
a 169 20
a 169 236
a 169 240
a 169 21
a 169 22
a 169 127
a 169 23
a 169 251
a 169 252
a 169 253
a 169 322
a 169 460
a 169 362
a 169 257
a 169 263
a 169 264
a 169 406
a 169 265
a 169 266
a 169 323
a 169 363
a 169 461
a 169 27
a 169 271
a 169 274
a 169 366
a 169 464
a 169 167
a 169 278
a 169 279
a 169 329
a 169 281
a 169 282
a 169 283
a 169 32
a 169 33
a 169 34
a 169 288
a 169 289
a 169 290
a 169 291
a 169 292
a 169 111
a 169 470
a 169 37
a 169 171
a 169 298
a 169 299
a 169 38
a 169 471
a 169 173
a 169 394
a 169 174
a 169 112
a 169 136
a 169 309
a 169 40
a 169 41
a 169 113
a 169 42
a 169 43
a 169 44
a 169 46
a 169 114
a 169 47
a 169 48
a 169 49
a 169 115
a 169 50
a 169 51
a 169 52
a 169 53
a 169 54
a 169 55
a 169 181
a 169 56
a 169 57
a 169 58
a 169 59
a 169 60
a 169 311
a 169 99
a 169 183
a 169 61
a 169 62
a 169 63
a 169 185
a 169 277
a 169 413
a 169 422
a 169 308
a 169 310
a 169 184
a 170 6
a 170 186
a 170 193
a 170 148
a 170 220
a 170 352
a 170 128
a 170 255
a 170 284
a 170 416
a 170 119
a 170 318
a 170 64
a 170 65
a 170 66
a 170 80
a 170 84
a 170 138
a 170 10
a 170 102
a 170 150
a 170 151
a 170 397
a 170 386
a 170 104
a 170 12
a 170 141
a 170 142
a 170 105
a 170 232
a 170 154
a 170 106
a 170 107
a 170 14
a 170 133
a 170 16
a 170 452
a 170 17
a 170 96
a 170 20
a 170 236
a 170 240
a 170 21
a 170 22
a 170 127
a 170 23
a 170 161
a 170 162
a 170 164
a 170 251
a 170 322
a 170 25
a 170 256
a 170 26
a 170 460
a 170 362
a 170 257
a 170 259
a 170 261
a 170 263
a 170 264
a 170 406
a 170 265
a 170 266
a 170 363
a 170 27
a 170 269
a 170 271
a 170 110
a 170 28
a 170 274
a 170 366
a 170 30
a 170 167
a 170 368
a 170 279
a 170 370
a 170 281
a 170 282
a 170 283
a 170 32
a 170 34
a 170 417
a 170 287
a 170 288
a 170 289
a 170 290
a 170 419
a 170 35
a 170 292
a 170 111
a 170 294
a 170 296
a 170 297
a 170 171
a 170 306
a 170 394
a 170 174
a 170 428
a 170 112
a 170 175
a 170 375
a 170 176
a 170 430
a 170 135
a 170 177
a 170 136
a 170 309
a 170 40
a 170 41
a 170 113
a 170 42
a 170 43
a 170 44
a 170 46
a 170 114
a 170 47
a 170 48
a 170 49
a 170 115
a 170 50
a 170 51
a 170 52
a 170 53
a 170 54
a 170 55
a 170 181
a 170 56
a 170 57
a 170 58
a 170 59
a 170 60
a 170 99
a 170 61
a 170 396
a 170 62
a 170 63
a 170 185
a 170 38
a 170 180
a 170 434
a 170 182
a 170 312
a 170 116
a 170 183
a 171 6
a 171 314
a 171 315
a 171 316
a 171 186
a 171 187
a 171 188
a 171 189
a 171 332
a 171 190
a 171 191
a 171 192
a 171 193
a 171 194
a 171 195
a 171 196
a 171 333
a 171 197
a 171 198
a 171 199
a 171 200
a 171 201
a 171 206
a 171 337
a 171 207
a 171 209
a 171 340
a 171 148
a 171 341
a 171 9
a 171 346
a 171 439
a 171 221
a 171 403
a 171 98
a 171 128
a 171 164
a 171 26
a 171 406
a 171 265
a 171 267
a 171 27
a 171 269
a 171 271
a 171 110
a 171 29
a 171 275
a 171 276
a 171 169
a 171 277
a 171 325
a 171 326
a 171 327
a 171 279
a 171 280
a 171 281
a 171 283
a 171 33
a 171 34
a 171 170
a 171 465
a 171 285
a 171 287
a 171 288
a 171 289
a 171 373
a 171 420
a 171 421
a 171 422
a 171 468
a 171 423
a 171 35
a 171 291
a 171 292
a 171 293
a 171 294
a 171 297
a 171 425
a 171 318
a 171 84
a 171 10
a 171 102
a 171 220
a 171 104
a 171 12
a 171 13
a 171 141
a 171 142
a 171 232
a 171 106
a 171 107
a 171 14
a 171 16
a 171 17
a 171 20
a 171 236
a 171 237
a 171 240
a 171 21
a 171 22
a 171 127
a 171 23
a 171 247
a 171 251
a 171 254
a 171 255
a 171 361
a 171 256
a 171 460
a 171 362
a 171 257
a 171 258
a 171 259
a 171 260
a 171 261
a 171 262
a 171 263
a 171 264
a 171 266
a 171 323
a 171 363
a 171 461
a 171 324
a 171 407
a 171 272
a 171 273
a 171 274
a 171 366
a 171 30
a 171 167
a 171 168
a 171 282
a 171 330
a 171 32
a 171 286
a 171 290
a 171 111
a 171 296
a 171 38
a 171 427
a 171 394
a 171 174
a 171 112
a 171 309
a 171 40
a 171 41
a 171 113
a 171 42
a 171 44
a 171 46
a 171 114
a 171 47
a 171 48
a 171 49
a 171 115
a 171 50
a 171 51
a 171 52
a 171 53
a 171 54
a 171 55
a 171 181
a 171 56
a 171 57
a 171 58
a 171 59
a 171 60
a 171 99
a 171 183
a 171 61
a 171 62
a 171 63
a 171 185
a 171 172
a 171 301
a 171 303
a 171 304
a 171 471
a 171 305
a 171 173
a 171 144
a 171 374
a 171 428
a 171 308
a 171 473
a 171 135
a 173 6
a 173 186
a 173 188
a 173 189
a 173 193
a 173 196
a 173 197
a 173 198
a 173 199
a 173 205
a 173 340
a 173 148
a 173 344
a 173 220
a 173 153
a 173 391
a 173 221
a 173 400
a 173 164
a 173 255
a 173 256
a 173 269
a 173 28
a 173 168
a 173 31
a 173 169
a 173 277
a 173 289
a 173 37
a 173 298
a 173 426
a 173 299
a 173 38
a 173 302
a 173 303
a 173 304
a 173 471
a 173 472
a 173 305
a 173 10
a 173 102
a 173 151
a 173 397
a 173 218
a 173 377
a 173 349
a 173 477
a 173 378
a 173 11
a 173 219
a 173 386
a 173 350
a 173 104
a 173 222
a 173 223
a 173 224
a 173 225
a 173 226
a 173 12
a 173 229
a 173 230
a 173 398
a 173 231
a 173 401
a 173 142
a 173 232
a 173 233
a 173 106
a 173 107
a 173 16
a 173 17
a 173 236
a 173 240
a 173 21
a 173 22
a 173 127
a 173 128
a 173 23
a 173 254
a 173 26
a 173 460
a 173 362
a 173 260
a 173 263
a 173 264
a 173 265
a 173 266
a 173 323
a 173 363
a 173 461
a 173 364
a 173 365
a 173 407
a 173 268
a 173 27
a 173 271
a 173 272
a 173 110
a 173 273
a 173 274
a 173 366
a 173 30
a 173 167
a 173 328
a 173 278
a 173 279
a 173 281
a 173 282
a 173 283
a 173 32
a 173 33
a 173 34
a 173 285
a 173 373
a 173 420
a 173 423
a 173 35
a 173 291
a 173 292
a 173 297
a 173 470
a 173 171
a 173 394
a 173 174
a 173 429
a 173 308
a 173 135
a 173 432
a 173 376
a 173 309
a 173 40
a 173 41
a 173 113
a 173 42
a 173 43
a 173 44
a 173 46
a 173 114
a 173 47
a 173 48
a 173 49
a 173 50
a 173 51
a 173 52
a 173 53
a 173 54
a 173 55
a 173 181
a 173 56
a 173 57
a 173 58
a 173 59
a 173 60
a 173 99
a 173 183
a 173 61
a 173 62
a 173 63
a 173 185
a 173 473
a 173 180
a 173 115
a 173 434
a 173 310
a 173 311
a 173 182
a 173 312
a 173 116
a 173 436
a 173 184
a 178 6
a 178 317
a 178 186
a 178 193
a 178 196
a 178 197
a 178 340
a 178 148
a 178 217
a 178 64
a 178 68
a 178 81
a 178 126
a 178 151
a 178 218
a 178 220
a 178 229
a 178 141
a 178 107
a 178 234
a 178 15
a 178 134
a 178 17
a 178 97
a 178 143
a 178 240
a 178 21
a 178 22
a 178 127
a 178 128
a 178 243
a 178 255
a 178 256
a 178 267
a 178 271
a 178 272
a 178 273
a 178 275
a 178 31
a 178 277
a 178 279
a 178 34
a 178 284
a 178 285
a 178 111
a 178 293
a 178 294
a 178 296
a 178 297
a 178 299
a 178 38
a 178 300
a 178 172
a 178 301
a 178 302
a 178 112
a 178 177
a 178 7
a 178 10
a 178 102
a 178 441
a 178 378
a 178 446
a 178 221
a 178 104
a 178 12
a 178 142
a 178 16
a 178 404
a 178 319
a 178 236
a 178 237
a 178 359
a 178 253
a 178 24
a 178 322
a 178 25
a 178 263
a 178 406
a 178 110
a 178 28
a 178 367
a 178 167
a 178 394
a 178 308
a 178 135
a 178 179
a 178 136
a 178 40
a 178 41
a 178 42
a 178 43
a 178 44
a 178 46
a 178 114
a 178 47
a 178 49
a 178 50
a 178 51
a 178 52
a 178 53
a 178 54
a 178 55
a 178 181
a 178 56
a 178 57
a 178 58
a 178 59
a 178 60
a 178 99
a 178 61
a 178 396
a 178 62
a 178 63
a 178 185
a 178 113
a 178 180
a 178 48
a 178 115
a 178 434
a 178 182
a 178 312
a 178 116
a 178 183
a 178 385
a 178 476
a 178 436
a 178 184
a 180 6
a 180 317
a 180 186
a 180 193
a 180 197
a 180 340
a 180 148
a 180 217
a 180 151
a 180 220
a 180 141
a 180 107
a 180 234
a 180 15
a 180 17
a 180 97
a 180 21
a 180 128
a 180 255
a 180 284
a 180 293
a 180 294
a 180 296
a 180 299
a 180 38
a 180 300
a 180 172
a 180 301
a 180 302
a 180 112
a 180 41
a 180 113
a 180 42
a 180 43
a 180 44
a 180 119
a 180 147
a 180 149
a 180 64
a 180 65
a 180 66
a 180 84
a 180 138
a 180 10
a 180 102
a 180 150
a 180 228
a 180 105
a 180 232
a 180 154
a 180 106
a 180 157
a 180 158
a 180 14
a 180 133
a 180 134
a 180 16
a 180 159
a 180 160
a 180 20
a 180 22
a 180 23
a 180 161
a 180 162
a 180 164
a 180 253
a 180 28
a 180 32
a 180 34
a 180 170
a 180 35
a 180 111
a 180 36
a 180 37
a 180 173
a 180 174
a 180 175
a 180 176
a 180 135
a 180 177
a 180 178
a 180 179
a 180 136
a 180 46
a 180 114
a 180 47
a 180 48
a 180 49
a 180 115
a 180 50
a 180 51
a 180 52
a 180 53
a 180 54
a 180 55
a 180 181
a 180 56
a 180 57
a 180 58
a 180 59
a 180 60
a 180 99
a 180 183
a 180 61
a 180 62
a 180 184
a 180 63
a 180 434
a 180 311
a 180 182
a 180 312
a 180 116
a 182 6
a 182 113
a 182 43
a 182 44
a 182 47
a 182 48
a 182 115
a 182 52
a 182 53
a 182 54
a 182 5
a 182 119
a 182 120
a 182 147
a 182 137
a 182 148
a 182 149
a 182 64
a 182 65
a 182 66
a 182 122
a 182 123
a 182 67
a 182 124
a 182 68
a 182 125
a 182 69
a 182 70
a 182 71
a 182 72
a 182 383
a 182 73
a 182 74
a 182 75
a 182 76
a 182 77
a 182 81
a 182 82
a 182 83
a 182 84
a 182 138
a 182 10
a 182 126
a 182 92
a 182 93
a 182 95
a 182 102
a 182 150
a 182 220
a 182 386
a 182 350
a 182 12
a 182 141
a 182 105
a 182 232
a 182 154
a 182 106
a 182 157
a 182 158
a 182 107
a 182 14
a 182 15
a 182 133
a 182 134
a 182 16
a 182 159
a 182 160
a 182 17
a 182 96
a 182 20
a 182 97
a 182 108
a 182 98
a 182 21
a 182 22
a 182 127
a 182 128
a 182 23
a 182 161
a 182 162
a 182 163
a 182 164
a 182 109
a 182 165
a 182 25
a 182 110
a 182 30
a 182 167
a 182 32
a 182 284
a 182 170
a 182 422
a 182 35
a 182 111
a 182 297
a 182 36
a 182 37
a 182 173
a 182 144
a 182 394
a 182 374
a 182 174
a 182 112
a 182 175
a 182 375
a 182 176
a 182 135
a 182 177
a 182 178
a 182 179
a 182 136
a 182 474
a 182 39
a 182 309
a 182 40
a 182 41
a 182 42
a 182 45
a 182 180
a 182 46
a 182 114
a 182 49
a 182 50
a 182 51
a 182 55
a 182 181
a 182 56
a 182 57
a 182 58
a 182 59
a 182 60
a 182 99
a 182 116
a 182 183
a 182 61
a 182 62
a 182 184
a 182 63
a 314 315
a 314 316
a 314 318
a 314 7
a 314 148
a 314 10
a 314 102
a 314 221
a 314 104
a 314 16
a 314 17
a 314 18
a 314 235
a 314 21
a 314 22
a 314 23
a 314 164
a 314 244
a 314 166
a 314 253
a 314 255
a 314 256
a 314 26
a 314 406
a 314 265
a 314 271
a 314 28
a 314 30
a 314 168
a 314 277
a 314 325
a 314 326
a 314 327
a 314 279
a 314 411
a 314 281
a 314 330
a 314 32
a 314 289
a 314 331
a 314 35
a 314 171
a 314 38
a 314 304
a 314 40
a 314 41
a 314 113
a 314 42
a 314 43
a 314 44
a 314 45
a 314 46
a 314 114
a 314 47
a 314 48
a 314 49
a 314 115
a 314 50
a 314 52
a 314 53
a 314 54
a 314 55
a 314 181
a 314 56
a 314 57
a 314 58
a 314 59
a 314 60
a 314 99
a 314 183
a 314 61
a 314 62
a 314 184
a 314 63
a 314 185
a 314 19
a 314 20
a 314 236
a 314 237
a 314 97
a 314 108
a 314 98
a 314 320
a 314 143
a 314 240
a 314 128
a 314 354
a 314 246
a 314 24
a 314 360
a 314 361
a 314 25
a 314 362
a 314 258
a 314 260
a 314 261
a 314 264
a 314 323
a 314 267
a 314 27
a 314 269
a 314 270
a 314 272
a 314 110
a 314 366
a 314 275
a 314 167
a 314 409
a 314 368
a 314 329
a 314 282
a 314 33
a 314 292
a 314 37
a 315 314
a 315 316
a 315 318
a 315 7
a 315 148
a 315 10
a 315 102
a 315 151
a 315 103
a 315 221
a 315 104
a 315 106
a 315 16
a 315 17
a 315 18
a 315 235
a 315 21
a 315 22
a 315 23
a 315 164
a 315 244
a 315 249
a 315 166
a 315 255
a 315 256
a 315 26
a 315 460
a 315 406
a 315 271
a 315 28
a 315 30
a 315 168
a 315 277
a 315 325
a 315 326
a 315 327
a 315 281
a 315 32
a 315 34
a 315 289
a 315 35
a 315 292
a 315 171
a 315 38
a 315 304
a 315 306
a 315 112
a 315 40
a 315 41
a 315 113
a 315 42
a 315 43
a 315 44
a 315 45
a 315 46
a 315 114
a 315 47
a 315 48
a 315 49
a 315 115
a 315 50
a 315 51
a 315 52
a 315 53
a 315 54
a 315 55
a 315 181
a 315 56
a 315 57
a 315 58
a 315 59
a 315 60
a 315 99
a 315 183
a 315 61
a 315 62
a 315 184
a 315 63
a 315 185
a 315 19
a 315 236
a 315 237
a 315 362
a 315 257
a 315 258
a 315 259
a 315 261
a 316 314
a 316 315
a 316 318
a 316 7
a 316 148
a 316 10
a 316 221
a 316 104
a 316 16
a 316 17
a 316 18
a 316 235
a 316 20
a 316 236
a 316 21
a 316 22
a 316 23
a 316 164
a 316 244
a 316 253
a 316 255
a 316 256
a 316 265
a 316 267
a 316 271
a 316 30
a 316 168
a 316 277
a 316 325
a 316 326
a 316 327
a 316 329
a 316 281
a 316 330
a 316 32
a 316 34
a 316 289
a 316 35
a 316 171
a 316 38
a 316 40
a 316 41
a 316 113
a 316 42
a 316 43
a 316 44
a 316 46
a 316 114
a 316 47
a 316 48
a 316 49
a 316 115
a 316 50
a 316 51
a 316 52
a 316 53
a 316 54
a 316 55
a 316 181
a 316 56
a 316 57
a 316 58
a 316 59
a 316 60
a 316 183
a 316 61
a 316 62
a 316 184
a 316 63
a 316 185
a 316 317
a 316 70
a 316 80
a 316 101
a 316 140
a 316 141
a 316 142
a 316 154
a 316 19
a 316 96
a 316 352
a 316 237
a 316 97
a 316 108
a 316 98
a 316 320
a 316 143
a 316 240
a 316 485
a 316 127
a 316 128
a 316 246
a 316 165
a 316 166
a 316 251
a 316 24
a 316 254
a 316 360
a 316 322
a 316 361
a 316 25
a 316 26
a 316 362
a 316 258
a 316 259
a 316 260
a 316 261
a 316 264
a 316 406
a 316 266
a 316 363
a 316 407
a 316 27
a 316 269
a 316 110
a 316 275
a 316 167
a 316 280
a 316 371
a 316 291
a 316 292
a 316 36
a 316 470
a 316 427
a 316 112
a 221 314
a 221 315
a 221 316
a 221 318
a 221 188
a 221 192
a 221 193
a 221 196
a 221 197
a 221 198
a 221 199
a 221 200
a 221 201
a 221 205
a 221 337
a 221 208
a 221 209
a 221 342
a 221 343
a 221 389
a 221 139
a 221 4
a 221 119
a 221 147
a 221 137
a 221 6
a 221 7
a 221 148
a 221 9
a 221 345
a 221 64
a 221 65
a 221 66
a 221 80
a 221 84
a 221 138
a 221 10
a 221 102
a 221 151
a 221 11
a 221 220
a 221 386
a 221 104
a 221 222
a 221 225
a 221 381
a 221 140
a 221 232
a 221 154
a 221 106
a 221 107
a 221 14
a 221 16
a 221 17
a 221 18
a 221 19
a 221 319
a 221 96
a 221 235
a 221 20
a 221 236
a 221 240
a 221 21
a 221 22
a 221 127
a 221 128
a 221 23
a 221 163
a 221 164
a 221 251
a 221 252
a 221 253
a 221 255
a 221 25
a 221 26
a 221 263
a 221 265
a 221 271
a 221 110
a 221 28
a 221 29
a 221 273
a 221 30
a 221 167
a 221 31
a 221 277
a 221 410
a 221 326
a 221 328
a 221 279
a 221 329
a 221 413
a 221 280
a 221 281
a 221 330
a 221 283
a 221 32
a 221 34
a 221 289
a 221 331
a 221 35
a 221 111
a 221 36
a 221 37
a 221 171
a 221 426
a 221 299
a 221 38
a 221 173
a 221 394
a 221 429
a 221 175
a 221 135
a 221 177
a 221 40
a 221 41
a 221 113
a 221 42
a 221 43
a 221 44
a 221 45
a 221 46
a 221 114
a 221 47
a 221 48
a 221 49
a 221 115
a 221 50
a 221 51
a 221 52
a 221 53
a 221 54
a 221 55
a 221 181
a 221 56
a 221 57
a 221 58
a 221 59
a 221 60
a 221 99
a 221 183
a 221 61
a 221 62
a 221 184
a 221 63
a 221 185
a 221 379
a 221 223
a 221 224
a 221 226
a 221 227
a 221 380
a 221 228
a 221 12
a 221 13
a 221 229
a 221 447
a 221 448
a 221 401
a 221 141
a 221 142
a 221 233
a 221 158
a 221 134
a 221 97
a 221 320
a 221 254
a 221 256
a 221 268
a 221 305
a 221 144
a 221 112
a 221 178
a 235 314
a 235 315
a 235 316
a 235 318
a 235 7
a 235 8
a 235 188
a 235 201
a 235 202
a 235 335
a 235 336
a 235 203
a 235 205
a 235 338
a 235 437
a 235 207
a 235 208
a 235 209
a 235 339
a 235 342
a 235 211
a 235 213
a 235 215
a 235 344
a 235 216
a 235 346
a 235 149
a 235 347
a 235 348
a 235 221
a 235 17
a 235 18
a 235 6
a 235 148
a 235 80
a 235 84
a 235 10
a 235 102
a 235 12
a 235 105
a 235 232
a 235 154
a 235 155
a 235 106
a 235 107
a 235 14
a 235 133
a 235 16
a 235 20
a 235 108
a 235 21
a 235 22
a 235 128
a 235 164
a 235 253
a 235 255
a 235 256
a 235 460
a 235 258
a 235 263
a 235 324
a 235 409
a 235 280
a 235 281
a 235 32
a 235 34
a 235 111
a 235 394
a 235 429
a 235 112
a 235 135
a 235 136
a 235 41
a 235 113
a 235 42
a 235 43
a 235 44
a 235 46
a 235 114
a 235 47
a 235 48
a 235 49
a 235 115
a 235 50
a 235 52
a 235 53
a 235 54
a 235 55
a 235 181
a 235 56
a 235 57
a 235 58
a 235 59
a 235 60
a 235 99
a 235 183
a 235 61
a 235 62
a 235 184
a 235 63
a 235 185
a 235 241
a 235 244
a 235 245
a 235 246
a 235 355
a 235 250
a 235 166
a 235 359
a 235 24
a 235 272
a 235 110
a 235 276
a 235 294
a 235 38
a 235 172
a 235 301
a 235 307
a 235 436
a 244 314
a 244 315
a 244 316
a 244 317
a 244 7
a 244 186
a 244 187
a 244 188
a 244 189
a 244 332
a 244 190
a 244 191
a 244 192
a 244 193
a 244 194
a 244 195
a 244 196
a 244 333
a 244 197
a 244 198
a 244 199
a 244 200
a 244 201
a 244 202
a 244 336
a 244 203
a 244 204
a 244 205
a 244 206
a 244 337
a 244 338
a 244 207
a 244 208
a 244 209
a 244 339
a 244 340
a 244 148
a 244 341
a 244 9
a 244 395
a 244 342
a 244 438
a 244 210
a 244 212
a 244 213
a 244 343
a 244 214
a 244 344
a 244 216
a 244 345
a 244 17
a 244 20
a 244 21
a 244 241
a 244 127
a 244 128
a 244 6
a 244 318
a 244 8
a 244 84
a 244 10
a 244 102
a 244 104
a 244 228
a 244 105
a 244 232
a 244 155
a 244 106
a 244 14
a 244 133
a 244 134
a 244 16
a 244 96
a 244 235
a 244 236
a 244 22
a 244 23
a 244 163
a 244 164
a 244 251
a 244 24
a 244 255
a 244 258
a 244 265
a 244 267
a 244 274
a 244 30
a 244 275
a 244 168
a 244 277
a 244 280
a 244 281
a 244 32
a 244 34
a 244 35
a 244 292
a 244 111
a 244 38
a 244 172
a 244 307
a 244 394
a 244 112
a 244 40
a 244 41
a 244 113
a 244 42
a 244 43
a 244 44
a 244 45
a 244 46
a 244 114
a 244 47
a 244 48
a 244 49
a 244 115
a 244 50
a 244 51
a 244 52
a 244 53
a 244 54
a 244 55
a 244 181
a 244 56
a 244 57
a 244 58
a 244 59
a 244 60
a 244 99
a 244 183
a 244 61
a 244 62
a 244 184
a 244 63
a 244 185
a 244 245
a 244 248
a 244 249
a 244 250
a 244 166
a 244 359
a 244 321
a 244 252
a 244 253
a 244 254
a 244 360
a 244 268
a 244 269
a 244 368
a 244 291
a 244 302
a 253 314
a 253 316
a 253 318
a 253 317
a 253 7
a 253 8
a 253 186
a 253 187
a 253 188
a 253 189
a 253 332
a 253 190
a 253 192
a 253 193
a 253 194
a 253 195
a 253 196
a 253 333
a 253 197
a 253 198
a 253 199
a 253 200
a 253 201
a 253 207
a 253 208
a 253 438
a 253 217
a 253 346
a 253 64
a 253 65
a 253 66
a 253 382
a 253 122
a 253 123
a 253 67
a 253 124
a 253 68
a 253 125
a 253 69
a 253 70
a 253 71
a 253 72
a 253 383
a 253 73
a 253 74
a 253 75
a 253 76
a 253 77
a 253 78
a 253 79
a 253 80
a 253 81
a 253 82
a 253 83
a 253 84
a 253 85
a 253 387
a 253 86
a 253 87
a 253 138
a 253 10
a 253 126
a 253 88
a 253 89
a 253 90
a 253 91
a 253 92
a 253 93
a 253 440
a 253 94
a 253 95
a 253 102
a 253 150
a 253 388
a 253 389
a 253 151
a 253 397
a 253 218
a 253 390
a 253 377
a 253 441
a 253 349
a 253 477
a 253 378
a 253 442
a 253 11
a 253 139
a 253 103
a 253 443
a 253 444
a 253 482
a 253 219
a 253 220
a 253 386
a 253 350
a 253 152
a 253 153
a 253 445
a 253 446
a 253 391
a 253 221
a 253 104
a 253 222
a 253 379
a 253 223
a 253 224
a 253 225
a 253 226
a 253 227
a 253 380
a 253 228
a 253 381
a 253 12
a 253 13
a 253 229
a 253 447
a 253 448
a 253 230
a 253 398
a 253 231
a 253 449
a 253 399
a 253 400
a 253 401
a 253 402
a 253 450
a 253 451
a 253 140
a 253 141
a 253 142
a 253 105
a 253 232
a 253 233
a 253 154
a 253 155
a 253 106
a 253 156
a 253 157
a 253 158
a 253 107
a 253 234
a 253 14
a 253 15
a 253 403
a 253 133
a 253 134
a 253 484
a 253 16
a 253 159
a 253 404
a 253 160
a 253 405
a 253 452
a 253 17
a 253 18
a 253 319
a 253 235
a 253 455
a 253 236
a 253 237
a 253 97
a 253 21
a 253 241
a 253 242
a 253 22
a 253 353
a 253 127
a 253 128
a 253 23
a 253 392
a 253 456
a 253 243
a 253 161
a 253 459
a 253 162
a 253 164
a 253 245
a 253 354
a 253 246
a 253 355
a 253 356
a 253 358
a 253 247
a 253 165
a 253 248
a 253 249
a 253 250
a 253 166
a 253 359
a 253 321
a 253 252
a 253 132
a 253 6
a 253 148
a 253 101
a 253 96
a 253 20
a 253 239
a 253 320
a 253 240
a 253 485
a 253 244
a 253 24
a 253 254
a 253 322
a 253 255
a 253 25
a 253 256
a 253 460
a 253 362
a 253 264
a 253 324
a 253 271
a 253 110
a 253 28
a 253 273
a 253 30
a 253 167
a 253 279
a 253 280
a 253 32
a 253 34
a 253 292
a 253 111
a 253 38
a 253 172
a 253 307
a 253 394
a 253 429
a 253 112
a 253 135
a 253 136
a 253 432
a 253 40
a 253 41
a 253 113
a 253 42
a 253 43
a 253 44
a 253 46
a 253 114
a 253 47
a 253 48
a 253 49
a 253 115
a 253 50
a 253 51
a 253 52
a 253 53
a 253 54
a 253 55
a 253 181
a 253 56
a 253 57
a 253 58
a 253 59
a 253 60
a 253 99
a 253 183
a 253 61
a 253 62
a 253 63
a 253 185
a 253 361
a 253 26
a 253 257
a 253 258
a 253 259
a 253 260
a 253 261
a 253 263
a 253 406
a 253 265
a 253 266
a 253 323
a 253 363
a 253 461
a 253 129
a 253 364
a 253 365
a 253 407
a 253 267
a 253 268
a 253 27
a 253 269
a 253 408
a 253 462
a 253 270
a 253 272
a 253 130
a 253 463
a 253 29
a 253 366
a 253 464
a 253 275
a 253 367
a 253 276
a 253 168
a 253 31
a 253 169
a 253 277
a 253 325
a 253 409
a 253 410
a 253 327
a 253 328
a 253 278
a 253 368
a 253 384
a 253 413
a 253 281
a 253 330
a 253 371
a 253 283
a 253 415
a 253 33
a 253 417
a 253 418
a 253 285
a 253 466
a 253 372
a 253 287
a 253 288
a 253 289
a 253 290
a 253 331
a 253 419
a 253 373
a 253 420
a 253 421
a 253 422
a 253 468
a 253 469
a 253 423
a 253 291
a 253 424
a 253 294
a 253 295
a 253 297
a 253 36
a 253 470
a 253 425
a 253 37
a 253 299
a 253 300
a 253 301
a 253 302
a 253 303
a 253 304
a 253 471
a 253 305
a 253 427
a 253 144
a 253 374
a 253 375
a 253 176
a 253 177
a 253 178
a 253 179
a 253 474
a 253 376
a 253 433
a 253 45
a 253 180
a 253 434
a 253 184
a 255 314
a 255 315
a 255 316
a 255 318
a 255 317
a 255 7
a 255 8
a 255 186
a 255 187
a 255 188
a 255 189
a 255 332
a 255 190
a 255 191
a 255 192
a 255 193
a 255 194
a 255 195
a 255 196
a 255 333
a 255 197
a 255 198
a 255 199
a 255 200
a 255 334
a 255 201
a 255 202
a 255 335
a 255 336
a 255 203
a 255 204
a 255 205
a 255 206
a 255 337
a 255 338
a 255 207
a 255 208
a 255 209
a 255 339
a 255 340
a 255 148
a 255 341
a 255 9
a 255 395
a 255 342
a 255 438
a 255 210
a 255 211
a 255 212
a 255 213
a 255 343
a 255 214
a 255 215
a 255 344
a 255 216
a 255 345
a 255 217
a 255 346
a 255 439
a 255 149
a 255 347
a 255 348
a 255 65
a 255 66
a 255 122
a 255 123
a 255 67
a 255 125
a 255 69
a 255 70
a 255 72
a 255 383
a 255 73
a 255 75
a 255 77
a 255 78
a 255 82
a 255 83
a 255 84
a 255 86
a 255 87
a 255 88
a 255 90
a 255 101
a 255 440
a 255 95
a 255 151
a 255 218
a 255 377
a 255 349
a 255 378
a 255 11
a 255 103
a 255 219
a 255 220
a 255 386
a 255 350
a 255 153
a 255 446
a 255 391
a 255 221
a 255 104
a 255 222
a 255 379
a 255 223
a 255 224
a 255 225
a 255 226
a 255 227
a 255 228
a 255 381
a 255 12
a 255 13
a 255 229
a 255 447
a 255 448
a 255 230
a 255 398
a 255 231
a 255 449
a 255 399
a 255 400
a 255 401
a 255 402
a 255 450
a 255 451
a 255 140
a 255 141
a 255 142
a 255 232
a 255 233
a 255 154
a 255 155
a 255 106
a 255 157
a 255 158
a 255 107
a 255 234
a 255 15
a 255 403
a 255 133
a 255 134
a 255 16
a 255 159
a 255 405
a 255 17
a 255 18
a 255 19
a 255 319
a 255 96
a 255 235
a 255 352
a 255 455
a 255 20
a 255 236
a 255 237
a 255 238
a 255 239
a 255 97
a 255 108
a 255 98
a 255 320
a 255 143
a 255 240
a 255 21
a 255 241
a 255 242
a 255 22
a 255 353
a 255 485
a 255 127
a 255 128
a 255 23
a 255 392
a 255 456
a 255 459
a 255 164
a 255 109
a 255 244
a 255 245
a 255 246
a 255 355
a 255 356
a 255 247
a 255 248
a 255 249
a 255 250
a 255 166
a 255 359
a 255 321
a 255 251
a 255 252
a 255 253
a 255 24
a 255 254
a 255 360
a 255 322
a 255 119
a 255 147
a 255 6
a 255 64
a 255 138
a 255 10
a 255 102
a 255 150
a 255 152
a 255 105
a 255 156
a 255 14
a 255 160
a 255 161
a 255 162
a 255 163
a 255 165
a 255 361
a 255 25
a 255 479
a 255 480
a 255 256
a 255 26
a 255 460
a 255 362
a 255 257
a 255 258
a 255 259
a 255 260
a 255 261
a 255 262
a 255 263
a 255 264
a 255 406
a 255 265
a 255 266
a 255 323
a 255 363
a 255 129
a 255 324
a 255 364
a 255 365
a 255 268
a 255 27
a 255 269
a 255 408
a 255 462
a 255 271
a 255 272
a 255 110
a 255 28
a 255 29
a 255 273
a 255 274
a 255 366
a 255 30
a 255 275
a 255 167
a 255 168
a 255 169
a 255 277
a 255 409
a 255 327
a 255 328
a 255 278
a 255 368
a 255 279
a 255 329
a 255 369
a 255 411
a 255 280
a 255 281
a 255 282
a 255 330
a 255 371
a 255 283
a 255 415
a 255 32
a 255 33
a 255 34
a 255 284
a 255 418
a 255 170
a 255 372
a 255 287
a 255 288
a 255 289
a 255 290
a 255 331
a 255 467
a 255 419
a 255 422
a 255 35
a 255 291
a 255 292
a 255 111
a 255 297
a 255 36
a 255 470
a 255 37
a 255 38
a 255 172
a 255 304
a 255 471
a 255 173
a 255 306
a 255 307
a 255 427
a 255 394
a 255 174
a 255 429
a 255 112
a 255 175
a 255 176
a 255 135
a 255 177
a 255 178
a 255 179
a 255 136
a 255 39
a 255 309
a 255 40
a 255 41
a 255 113
a 255 42
a 255 43
a 255 44
a 255 45
a 255 180
a 255 46
a 255 114
a 255 47
a 255 48
a 255 49
a 255 115
a 255 50
a 255 51
a 255 52
a 255 53
a 255 54
a 255 55
a 255 181
a 255 56
a 255 57
a 255 58
a 255 59
a 255 60
a 255 311
a 255 99
a 255 183
a 255 61
a 255 62
a 255 184
a 255 63
a 255 185
a 255 461
a 255 407
a 255 267
a 255 270
a 255 130
a 255 463
a 255 464
a 255 367
a 255 276
a 255 31
a 255 325
a 255 410
a 255 326
a 255 384
a 255 412
a 255 413
a 255 414
a 255 370
a 255 416
a 255 417
a 255 393
a 255 465
a 255 285
a 255 466
a 255 286
a 255 373
a 255 420
a 255 421
a 255 468
a 255 469
a 255 423
a 255 293
a 255 294
a 255 295
a 255 296
a 255 425
a 255 171
a 255 298
a 255 426
a 255 299
a 255 300
a 255 301
a 255 302
a 255 303
a 255 472
a 255 305
a 255 144
a 255 374
a 255 428
a 255 375
a 255 430
a 255 431
a 255 308
a 255 473
a 255 474
a 255 475
a 255 432
a 255 433
a 256 314
a 256 315
a 256 316
a 256 318
a 256 7
a 256 8
a 256 186
a 256 187
a 256 188
a 256 189
a 256 332
a 256 190
a 256 191
a 256 192
a 256 193
a 256 194
a 256 195
a 256 196
a 256 333
a 256 197
a 256 198
a 256 199
a 256 200
a 256 334
a 256 201
a 256 202
a 256 336
a 256 203
a 256 204
a 256 205
a 256 206
a 256 207
a 256 208
a 256 209
a 256 340
a 256 148
a 256 341
a 256 210
a 256 212
a 256 213
a 256 214
a 256 217
a 256 346
a 256 439
a 256 149
a 256 348
a 256 378
a 256 219
a 256 220
a 256 386
a 256 153
a 256 446
a 256 391
a 256 12
a 256 229
a 256 447
a 256 398
a 256 399
a 256 402
a 256 158
a 256 107
a 256 17
a 256 18
a 256 96
a 256 235
a 256 20
a 256 236
a 256 237
a 256 97
a 256 98
a 256 143
a 256 241
a 256 22
a 256 127
a 256 128
a 256 23
a 256 164
a 256 245
a 256 246
a 256 355
a 256 356
a 256 250
a 256 166
a 256 359
a 256 321
a 256 251
a 256 252
a 256 253
a 256 24
a 256 255
a 256 361
a 256 25
a 256 479
a 256 480
a 256 119
a 256 6
a 256 64
a 256 65
a 256 66
a 256 74
a 256 80
a 256 84
a 256 138
a 256 10
a 256 102
a 256 150
a 256 377
a 256 221
a 256 104
a 256 222
a 256 379
a 256 225
a 256 228
a 256 381
a 256 13
a 256 400
a 256 105
a 256 232
a 256 154
a 256 106
a 256 156
a 256 157
a 256 14
a 256 15
a 256 133
a 256 134
a 256 16
a 256 159
a 256 160
a 256 319
a 256 240
a 256 21
a 256 242
a 256 161
a 256 162
a 256 322
a 256 26
a 256 460
a 256 362
a 256 257
a 256 258
a 256 259
a 256 260
a 256 261
a 256 262
a 256 263
a 256 264
a 256 406
a 256 265
a 256 266
a 256 323
a 256 363
a 256 461
a 256 324
a 256 407
a 256 267
a 256 268
a 256 27
a 256 269
a 256 462
a 256 271
a 256 272
a 256 110
a 256 273
a 256 274
a 256 366
a 256 30
a 256 464
a 256 275
a 256 167
a 256 168
a 256 31
a 256 169
a 256 277
a 256 325
a 256 409
a 256 326
a 256 328
a 256 278
a 256 368
a 256 279
a 256 329
a 256 369
a 256 411
a 256 384
a 256 412
a 256 414
a 256 280
a 256 281
a 256 282
a 256 330
a 256 371
a 256 283
a 256 415
a 256 32
a 256 33
a 256 34
a 256 284
a 256 285
a 256 287
a 256 288
a 256 289
a 256 290
a 256 331
a 256 467
a 256 35
a 256 291
a 256 292
a 256 111
a 256 296
a 256 36
a 256 37
a 256 298
a 256 299
a 256 38
a 256 304
a 256 173
a 256 306
a 256 307
a 256 427
a 256 394
a 256 174
a 256 429
a 256 112
a 256 175
a 256 176
a 256 135
a 256 177
a 256 178
a 256 179
a 256 136
a 256 39
a 256 41
a 256 113
a 256 42
a 256 43
a 256 44
a 256 45
a 256 46
a 256 114
a 256 47
a 256 48
a 256 49
a 256 115
a 256 50
a 256 51
a 256 52
a 256 53
a 256 54
a 256 55
a 256 181
a 256 56
a 256 57
a 256 58
a 256 59
a 256 60
a 256 99
a 256 183
a 256 61
a 256 62
a 256 184
a 256 63
a 256 185
a 256 364
a 256 365
a 256 408
a 256 270
a 256 463
a 256 28
a 256 29
a 256 367
a 256 276
a 256 410
a 256 327
a 256 413
a 256 370
a 256 416
a 256 417
a 256 418
a 256 170
a 256 393
a 256 465
a 256 466
a 256 372
a 256 286
a 256 419
a 256 373
a 256 420
a 256 421
a 256 422
a 256 468
a 256 469
a 256 423
a 256 294
a 256 295
a 256 297
a 256 425
a 256 171
a 256 426
a 256 300
a 256 172
a 256 301
a 256 302
a 256 303
a 256 471
a 256 472
a 256 305
a 256 144
a 256 374
a 256 428
a 256 431
a 256 308
a 256 432
a 256 309
a 256 40
a 256 436
a 406 314
a 406 315
a 406 193
a 406 194
a 406 196
a 406 197
a 406 198
a 406 201
a 406 209
a 406 217
a 406 346
a 406 439
a 406 149
a 406 348
a 406 378
a 406 447
a 406 398
a 406 399
a 406 402
a 406 141
a 406 154
a 406 106
a 406 158
a 406 403
a 406 134
a 406 484
a 406 160
a 406 452
a 406 453
a 406 454
a 406 17
a 406 18
a 406 19
a 406 352
a 406 20
a 406 236
a 406 237
a 406 97
a 406 108
a 406 98
a 406 320
a 406 143
a 406 21
a 406 128
a 406 247
a 406 251
a 406 255
a 406 256
a 406 26
a 406 362
a 406 257
a 406 261
a 406 263
a 406 264
a 406 316
a 406 318
a 406 148
a 406 84
a 406 10
a 406 102
a 406 104
a 406 105
a 406 232
a 406 107
a 406 16
a 406 240
a 406 22
a 406 127
a 406 23
a 406 164
a 406 253
a 406 361
a 406 460
a 406 258
a 406 259
a 406 260
a 406 262
a 406 265
a 406 271
a 406 110
a 406 28
a 406 29
a 406 274
a 406 366
a 406 30
a 406 167
a 406 328
a 406 279
a 406 281
a 406 282
a 406 371
a 406 283
a 406 32
a 406 34
a 406 290
a 406 467
a 406 292
a 406 111
a 406 293
a 406 294
a 406 295
a 406 296
a 406 297
a 406 37
a 406 171
a 406 394
a 406 39
a 406 40
a 406 41
a 406 113
a 406 42
a 406 43
a 406 44
a 406 46
a 406 114
a 406 47
a 406 48
a 406 49
a 406 115
a 406 50
a 406 51
a 406 52
a 406 53
a 406 54
a 406 55
a 406 181
a 406 56
a 406 57
a 406 58
a 406 59
a 406 60
a 406 99
a 406 183
a 406 61
a 406 62
a 406 63
a 406 185
a 406 266
a 406 363
a 406 461
a 406 407
a 406 267
a 406 27
a 406 269
a 406 272
a 406 130
a 406 463
a 406 273
a 406 464
a 406 275
a 406 276
a 406 168
a 406 31
a 406 169
a 406 277
a 406 325
a 406 409
a 406 326
a 406 327
a 406 278
a 406 368
a 406 329
a 406 369
a 406 411
a 406 384
a 406 412
a 406 413
a 406 414
a 406 370
a 406 280
a 406 330
a 406 415
a 406 33
a 406 284
a 406 416
a 406 170
a 406 393
a 406 285
a 406 466
a 406 372
a 406 286
a 406 287
a 406 288
a 406 289
a 406 331
a 406 419
a 406 373
a 406 420
a 406 421
a 406 422
a 406 468
a 406 423
a 406 35
a 406 291
a 406 36
a 406 470
a 406 425
a 406 426
a 406 38
a 406 300
a 406 172
a 406 301
a 406 304
a 406 305
a 406 306
a 406 307
a 406 427
a 406 144
a 406 374
a 406 174
a 406 428
a 406 429
a 406 112
a 406 175
a 406 375
a 406 176
a 406 430
a 406 308
a 406 473
a 406 135
a 406 178
a 406 179
a 406 136
a 265 314
a 265 316
a 265 318
a 265 7
a 265 8
a 265 186
a 265 187
a 265 188
a 265 189
a 265 332
a 265 190
a 265 191
a 265 192
a 265 193
a 265 194
a 265 195
a 265 196
a 265 333
a 265 197
a 265 198
a 265 199
a 265 200
a 265 334
a 265 201
a 265 202
a 265 335
a 265 336
a 265 203
a 265 204
a 265 205
a 265 206
a 265 337
a 265 207
a 265 208
a 265 209
a 265 339
a 265 340
a 265 148
a 265 341
a 265 9
a 265 395
a 265 342
a 265 438
a 265 210
a 265 211
a 265 212
a 265 213
a 265 343
a 265 214
a 265 215
a 265 345
a 265 217
a 265 346
a 265 439
a 265 348
a 265 378
a 265 391
a 265 221
a 265 227
a 265 447
a 265 448
a 265 398
a 265 399
a 265 402
a 265 155
a 265 107
a 265 134
a 265 17
a 265 18
a 265 20
a 265 98
a 265 241
a 265 128
a 265 164
a 265 244
a 265 245
a 265 355
a 265 356
a 265 247
a 265 166
a 265 359
a 265 24
a 265 255
a 265 361
a 265 25
a 265 479
a 265 256
a 265 26
a 265 362
a 265 257
a 265 260
a 265 261
a 265 263
a 265 264
a 265 406
a 265 119
a 265 6
a 265 64
a 265 65
a 265 66
a 265 84
a 265 138
a 265 10
a 265 102
a 265 151
a 265 397
a 265 218
a 265 220
a 265 386
a 265 104
a 265 228
a 265 12
a 265 13
a 265 141
a 265 105
a 265 232
a 265 106
a 265 158
a 265 14
a 265 133
a 265 16
a 265 159
a 265 236
a 265 237
a 265 240
a 265 21
a 265 22
a 265 127
a 265 23
a 265 251
a 265 252
a 265 253
a 265 322
a 265 460
a 265 258
a 265 259
a 265 262
a 265 266
a 265 323
a 265 363
a 265 271
a 265 272
a 265 110
a 265 28
a 265 273
a 265 274
a 265 366
a 265 30
a 265 275
a 265 167
a 265 168
a 265 328
a 265 279
a 265 280
a 265 281
a 265 282
a 265 283
a 265 32
a 265 33
a 265 34
a 265 287
a 265 288
a 265 289
a 265 290
a 265 467
a 265 419
a 265 422
a 265 35
a 265 292
a 265 111
a 265 294
a 265 295
a 265 296
a 265 297
a 265 37
a 265 171
a 265 38
a 265 394
a 265 429
a 265 112
a 265 175
a 265 135
a 265 177
a 265 179
a 265 136
a 265 39
a 265 40
a 265 41
a 265 113
a 265 42
a 265 43
a 265 44
a 265 45
a 265 46
a 265 114
a 265 47
a 265 48
a 265 49
a 265 115
a 265 50
a 265 51
a 265 52
a 265 53
a 265 54
a 265 55
a 265 181
a 265 56
a 265 57
a 265 58
a 265 59
a 265 60
a 265 99
a 265 183
a 265 61
a 265 62
a 265 184
a 265 63
a 265 185
a 265 461
a 265 324
a 265 364
a 265 407
a 265 267
a 265 268
a 265 27
a 265 269
a 265 270
a 265 29
a 265 464
a 265 367
a 265 276
a 265 31
a 265 169
a 265 277
a 265 325
a 265 410
a 265 326
a 265 327
a 265 278
a 265 368
a 265 329
a 265 369
a 265 411
a 265 384
a 265 413
a 265 414
a 265 370
a 265 330
a 265 415
a 265 284
a 265 416
a 265 417
a 265 418
a 265 170
a 265 393
a 265 465
a 265 285
a 265 466
a 265 372
a 265 286
a 265 331
a 265 373
a 265 420
a 265 421
a 265 468
a 265 469
a 265 423
a 265 291
a 265 293
a 265 36
a 265 425
a 265 298
a 265 426
a 265 299
a 265 300
a 265 172
a 265 301
a 265 302
a 265 303
a 265 304
a 265 472
a 265 305
a 265 173
a 265 306
a 265 307
a 265 427
a 265 144
a 265 174
a 265 428
a 265 375
a 265 430
a 265 308
a 265 475
a 265 432
a 265 309
a 265 436
a 271 314
a 271 315
a 271 316
a 271 318
a 271 7
a 271 8
a 271 186
a 271 187
a 271 188
a 271 189
a 271 332
a 271 190
a 271 191
a 271 192
a 271 193
a 271 194
a 271 195
a 271 196
a 271 333
a 271 197
a 271 198
a 271 199
a 271 200
a 271 201
a 271 202
a 271 336
a 271 203
a 271 204
a 271 205
a 271 206
a 271 338
a 271 207
a 271 208
a 271 209
a 271 340
a 271 148
a 271 395
a 271 342
a 271 438
a 271 213
a 271 343
a 271 214
a 271 215
a 271 216
a 271 345
a 271 217
a 271 346
a 271 439
a 271 149
a 271 348
a 271 378
a 271 11
a 271 153
a 271 446
a 271 391
a 271 221
a 271 104
a 271 223
a 271 224
a 271 225
a 271 226
a 271 227
a 271 12
a 271 13
a 271 229
a 271 447
a 271 448
a 271 230
a 271 398
a 271 231
a 271 449
a 271 399
a 271 400
a 271 401
a 271 402
a 271 450
a 271 451
a 271 232
a 271 154
a 271 106
a 271 107
a 271 15
a 271 403
a 271 159
a 271 17
a 271 18
a 271 352
a 271 20
a 271 97
a 271 98
a 271 143
a 271 241
a 271 22
a 271 127
a 271 128
a 271 23
a 271 392
a 271 162
a 271 163
a 271 164
a 271 356
a 271 251
a 271 253
a 271 24
a 271 255
a 271 361
a 271 25
a 271 479
a 271 480
a 271 256
a 271 26
a 271 362
a 271 257
a 271 260
a 271 261
a 271 263
a 271 264
a 271 406
a 271 265
a 271 266
a 271 323
a 271 363
a 271 461
a 271 129
a 271 324
a 271 364
a 271 365
a 271 407
a 271 267
a 271 268
a 271 27
a 271 269
a 271 408
a 271 462
a 271 270
a 271 119
a 271 6
a 271 64
a 271 65
a 271 66
a 271 84
a 271 138
a 271 10
a 271 102
a 271 220
a 271 152
a 271 228
a 271 105
a 271 155
a 271 14
a 271 133
a 271 134
a 271 16
a 271 236
a 271 108
a 271 240
a 271 21
a 271 247
a 271 166
a 271 252
a 271 460
a 271 258
a 271 259
a 271 262
a 271 272
a 271 110
a 271 29
a 271 274
a 271 366
a 271 30
a 271 275
a 271 167
a 271 276
a 271 168
a 271 31
a 271 328
a 271 278
a 271 368
a 271 279
a 271 329
a 271 369
a 271 411
a 271 281
a 271 282
a 271 330
a 271 283
a 271 32
a 271 33
a 271 34
a 271 284
a 271 285
a 271 466
a 271 289
a 271 290
a 271 331
a 271 467
a 271 35
a 271 292
a 271 111
a 271 294
a 271 296
a 271 297
a 271 37
a 271 171
a 271 38
a 271 301
a 271 304
a 271 306
a 271 307
a 271 394
a 271 429
a 271 112
a 271 175
a 271 135
a 271 177
a 271 178
a 271 179
a 271 136
a 271 41
a 271 113
a 271 42
a 271 43
a 271 44
a 271 45
a 271 46
a 271 114
a 271 47
a 271 48
a 271 49
a 271 115
a 271 50
a 271 51
a 271 52
a 271 53
a 271 54
a 271 55
a 271 181
a 271 56
a 271 57
a 271 58
a 271 59
a 271 60
a 271 99
a 271 183
a 271 61
a 271 396
a 271 62
a 271 184
a 271 63
a 271 185
a 271 130
a 271 463
a 271 28
a 271 273
a 271 464
a 271 367
a 271 169
a 271 277
a 271 325
a 271 409
a 271 410
a 271 326
a 271 327
a 271 384
a 271 412
a 271 413
a 271 414
a 271 370
a 271 280
a 271 415
a 271 416
a 271 417
a 271 418
a 271 170
a 271 393
a 271 465
a 271 372
a 271 286
a 271 287
a 271 288
a 271 419
a 271 373
a 271 420
a 271 421
a 271 422
a 271 468
a 271 469
a 271 423
a 271 291
a 271 293
a 271 295
a 271 425
a 271 298
a 271 426
a 271 299
a 271 300
a 271 172
a 271 302
a 271 303
a 271 471
a 271 472
a 271 305
a 271 173
a 271 427
a 271 144
a 271 374
a 271 174
a 271 428
a 271 176
a 271 430
a 271 431
a 271 308
a 271 473
a 271 475
a 271 432
a 271 309
a 271 40
a 277 314
a 277 315
a 277 316
a 277 318
a 277 317
a 277 7
a 277 8
a 277 186
a 277 187
a 277 188
a 277 189
a 277 332
a 277 190
a 277 191
a 277 192
a 277 193
a 277 194
a 277 195
a 277 196
a 277 333
a 277 197
a 277 198
a 277 199
a 277 200
a 277 334
a 277 201
a 277 202
a 277 335
a 277 336
a 277 203
a 277 204
a 277 205
a 277 206
a 277 337
a 277 338
a 277 437
a 277 207
a 277 208
a 277 209
a 277 339
a 277 340
a 277 148
a 277 341
a 277 9
a 277 395
a 277 342
a 277 438
a 277 210
a 277 211
a 277 212
a 277 213
a 277 343
a 277 214
a 277 215
a 277 344
a 277 216
a 277 345
a 277 346
a 277 221
a 277 17
a 277 21
a 277 241
a 277 244
a 277 245
a 277 246
a 277 355
a 277 250
a 277 166
a 277 359
a 277 252
a 277 24
a 277 255
a 277 256
a 277 26
a 277 267
a 277 27
a 277 408
a 277 110
a 277 167
a 277 276
a 277 168
a 277 31
a 277 119
a 277 147
a 277 6
a 277 439
a 277 149
a 277 64
a 277 65
a 277 66
a 277 74
a 277 84
a 277 138
a 277 10
a 277 102
a 277 150
a 277 377
a 277 441
a 277 442
a 277 139
a 277 220
a 277 386
a 277 446
a 277 104
a 277 222
a 277 225
a 277 228
a 277 12
a 277 13
a 277 400
a 277 105
a 277 232
a 277 154
a 277 106
a 277 157
a 277 158
a 277 107
a 277 14
a 277 15
a 277 133
a 277 134
a 277 16
a 277 159
a 277 160
a 277 455
a 277 237
a 277 240
a 277 22
a 277 127
a 277 128
a 277 23
a 277 161
a 277 162
a 277 163
a 277 164
a 277 165
a 277 251
a 277 253
a 277 25
a 277 460
a 277 362
a 277 260
a 277 263
a 277 264
a 277 406
a 277 265
a 277 266
a 277 323
a 277 363
a 277 461
a 277 407
a 277 269
a 277 271
a 277 272
a 277 29
a 277 273
a 277 274
a 277 366
a 277 30
a 277 464
a 277 275
a 277 169
a 277 325
a 277 409
a 277 327
a 277 328
a 277 278
a 277 368
a 277 279
a 277 329
a 277 413
a 277 280
a 277 281
a 277 282
a 277 330
a 277 371
a 277 283
a 277 32
a 277 33
a 277 34
a 277 285
a 277 287
a 277 288
a 277 289
a 277 290
a 277 331
a 277 419
a 277 35
a 277 111
a 277 294
a 277 296
a 277 297
a 277 36
a 277 37
a 277 171
a 277 298
a 277 299
a 277 38
a 277 172
a 277 301
a 277 304
a 277 173
a 277 307
a 277 427
a 277 394
a 277 174
a 277 429
a 277 112
a 277 175
a 277 176
a 277 135
a 277 177
a 277 178
a 277 179
a 277 136
a 277 309
a 277 40
a 277 41
a 277 113
a 277 42
a 277 43
a 277 44
a 277 45
a 277 46
a 277 114
a 277 47
a 277 48
a 277 49
a 277 115
a 277 50
a 277 51
a 277 52
a 277 53
a 277 54
a 277 55
a 277 181
a 277 56
a 277 57
a 277 58
a 277 59
a 277 60
a 277 311
a 277 99
a 277 183
a 277 61
a 277 62
a 277 184
a 277 63
a 277 185
a 277 326
a 277 384
a 277 412
a 277 372
a 277 426
a 277 302
a 277 303
a 277 436
a 325 314
a 325 315
a 325 316
a 325 318
a 325 7
a 325 8
a 325 17
a 325 240
a 325 241
a 325 248
a 325 249
a 325 250
a 325 359
a 325 321
a 325 24
a 325 256
a 325 267
a 325 27
a 325 167
a 325 168
a 325 277
a 325 148
a 325 346
a 325 64
a 325 84
a 325 10
a 325 102
a 325 151
a 325 397
a 325 477
a 325 139
a 325 386
a 325 104
a 325 13
a 325 141
a 325 105
a 325 232
a 325 106
a 325 107
a 325 133
a 325 16
a 325 236
a 325 21
a 325 22
a 325 127
a 325 128
a 325 23
a 325 164
a 325 165
a 325 251
a 325 252
a 325 253
a 325 255
a 325 26
a 325 460
a 325 362
a 325 257
a 325 260
a 325 263
a 325 264
a 325 406
a 325 265
a 325 266
a 325 323
a 325 363
a 325 271
a 325 110
a 325 274
a 325 366
a 325 30
a 325 275
a 325 409
a 325 368
a 325 279
a 325 329
a 325 411
a 325 384
a 325 280
a 325 281
a 325 282
a 325 330
a 325 283
a 325 32
a 325 34
a 325 287
a 325 288
a 325 289
a 325 290
a 325 291
a 325 111
a 325 294
a 325 297
a 325 171
a 325 298
a 325 38
a 325 304
a 325 144
a 325 394
a 325 112
a 325 136
a 325 309
a 325 41
a 325 113
a 325 42
a 325 43
a 325 44
a 325 46
a 325 114
a 325 47
a 325 48
a 325 49
a 325 115
a 325 50
a 325 51
a 325 52
a 325 53
a 325 54
a 325 55
a 325 181
a 325 56
a 325 57
a 325 58
a 325 59
a 325 60
a 325 311
a 325 99
a 325 183
a 325 61
a 325 62
a 325 63
a 325 185
a 325 326
a 325 327
a 325 414
a 325 285
a 325 372
a 325 419
a 326 314
a 326 315
a 326 316
a 326 318
a 326 7
a 326 8
a 326 188
a 326 189
a 326 190
a 326 191
a 326 192
a 326 193
a 326 194
a 326 195
a 326 196
a 326 333
a 326 197
a 326 198
a 326 199
a 326 200
a 326 201
a 326 202
a 326 203
a 326 207
a 326 209
a 326 340
a 326 148
a 326 341
a 326 395
a 326 342
a 326 438
a 326 213
a 326 214
a 326 215
a 326 345
a 326 151
a 326 218
a 326 219
a 326 350
a 326 221
a 326 104
a 326 225
a 326 402
a 326 17
a 326 241
a 326 128
a 326 243
a 326 245
a 326 246
a 326 355
a 326 250
a 326 359
a 326 251
a 326 24
a 326 256
a 326 268
a 326 408
a 326 273
a 326 30
a 326 275
a 326 31
a 326 410
a 326 64
a 326 84
a 326 10
a 326 101
a 326 102
a 326 441
a 326 220
a 326 13
a 326 105
a 326 232
a 326 155
a 326 106
a 326 107
a 326 14
a 326 133
a 326 134
a 326 16
a 326 319
a 326 20
a 326 236
a 326 240
a 326 21
a 326 22
a 326 23
a 326 252
a 326 255
a 326 26
a 326 460
a 326 257
a 326 259
a 326 260
a 326 263
a 326 264
a 326 406
a 326 265
a 326 266
a 326 323
a 326 363
a 326 461
a 326 324
a 326 267
a 326 27
a 326 271
a 326 110
a 326 274
a 326 366
a 326 167
a 326 168
a 326 277
a 326 325
a 326 328
a 326 368
a 326 279
a 326 384
a 326 414
a 326 280
a 326 281
a 326 282
a 326 330
a 326 283
a 326 415
a 326 32
a 326 33
a 326 34
a 326 288
a 326 289
a 326 290
a 326 111
a 326 294
a 326 296
a 326 297
a 326 171
a 326 38
a 326 172
a 326 301
a 326 394
a 326 429
a 326 112
a 326 135
a 326 41
a 326 113
a 326 42
a 326 43
a 326 44
a 326 46
a 326 114
a 326 47
a 326 48
a 326 49
a 326 115
a 326 50
a 326 51
a 326 52
a 326 53
a 326 54
a 326 55
a 326 181
a 326 56
a 326 57
a 326 58
a 326 59
a 326 60
a 326 99
a 326 183
a 326 61
a 326 62
a 326 63
a 326 185
a 326 327
a 326 372
a 326 419
a 326 426
a 326 302
a 327 314
a 327 315
a 327 316
a 327 7
a 327 8
a 327 192
a 327 203
a 327 207
a 327 209
a 327 340
a 327 148
a 327 341
a 327 395
a 327 342
a 327 438
a 327 210
a 327 212
a 327 213
a 327 214
a 327 215
a 327 345
a 327 151
a 327 218
a 327 219
a 327 350
a 327 17
a 327 241
a 327 128
a 327 250
a 327 24
a 327 255
a 327 26
a 327 30
a 327 277
a 327 84
a 327 10
a 327 102
a 327 104
a 327 225
a 327 400
a 327 232
a 327 106
a 327 107
a 327 16
a 327 240
a 327 21
a 327 22
a 327 23
a 327 164
a 327 251
a 327 253
a 327 256
a 327 460
a 327 362
a 327 263
a 327 264
a 327 406
a 327 265
a 327 266
a 327 323
a 327 363
a 327 267
a 327 27
a 327 271
a 327 272
a 327 110
a 327 273
a 327 274
a 327 464
a 327 275
a 327 168
a 327 325
a 327 326
a 327 328
a 327 278
a 327 368
a 327 279
a 327 384
a 327 281
a 327 282
a 327 283
a 327 33
a 327 34
a 327 285
a 327 287
a 327 288
a 327 289
a 327 290
a 327 419
a 327 292
a 327 111
a 327 37
a 327 171
a 327 298
a 327 299
a 327 38
a 327 394
a 327 112
a 327 41
a 327 113
a 327 42
a 327 43
a 327 44
a 327 46
a 327 114
a 327 47
a 327 48
a 327 49
a 327 115
a 327 50
a 327 51
a 327 52
a 327 53
a 327 54
a 327 55
a 327 181
a 327 56
a 327 57
a 327 58
a 327 59
a 327 60
a 327 99
a 327 61
a 327 62
a 327 63
a 327 185
a 327 302
a 279 314
a 279 318
a 279 317
a 279 217
a 279 346
a 279 439
a 279 149
a 279 347
a 279 348
a 279 123
a 279 67
a 279 68
a 279 125
a 279 70
a 279 72
a 279 73
a 279 81
a 279 93
a 279 94
a 279 95
a 279 102
a 279 388
a 279 151
a 279 378
a 279 220
a 279 446
a 279 391
a 279 221
a 279 12
a 279 447
a 279 448
a 279 398
a 279 399
a 279 400
a 279 401
a 279 402
a 279 451
a 279 233
a 279 154
a 279 155
a 279 106
a 279 156
a 279 158
a 279 107
a 279 234
a 279 14
a 279 15
a 279 134
a 279 159
a 279 17
a 279 18
a 279 96
a 279 20
a 279 236
a 279 237
a 279 239
a 279 97
a 279 143
a 279 21
a 279 241
a 279 242
a 279 353
a 279 485
a 279 127
a 279 128
a 279 23
a 279 164
a 279 109
a 279 354
a 279 246
a 279 356
a 279 247
a 279 249
a 279 250
a 279 166
a 279 359
a 279 321
a 279 251
a 279 252
a 279 253
a 279 254
a 279 360
a 279 322
a 279 255
a 279 361
a 279 25
a 279 480
a 279 256
a 279 26
a 279 362
a 279 257
a 279 258
a 279 259
a 279 260
a 279 261
a 279 262
a 279 263
a 279 264
a 279 406
a 279 265
a 279 266
a 279 323
a 279 363
a 279 461
a 279 129
a 279 324
a 279 364
a 279 365
a 279 407
a 279 267
a 279 268
a 279 27
a 279 269
a 279 408
a 279 462
a 279 270
a 279 271
a 279 272
a 279 130
a 279 110
a 279 463
a 279 28
a 279 29
a 279 273
a 279 274
a 279 366
a 279 30
a 279 464
a 279 275
a 279 367
a 279 167
a 279 276
a 279 168
a 279 31
a 279 169
a 279 277
a 279 325
a 279 409
a 279 410
a 279 326
a 279 327
a 279 328
a 279 278
a 279 368
a 279 119
a 279 6
a 279 148
a 279 64
a 279 65
a 279 66
a 279 84
a 279 138
a 279 10
a 279 150
a 279 397
a 279 377
a 279 139
a 279 104
a 279 228
a 279 13
a 279 141
a 279 142
a 279 105
a 279 232
a 279 157
a 279 133
a 279 16
a 279 160
a 279 319
a 279 108
a 279 240
a 279 22
a 279 161
a 279 460
a 279 329
a 279 411
a 279 384
a 279 412
a 279 414
a 279 370
a 279 280
a 279 281
a 279 282
a 279 371
a 279 283
a 279 415
a 279 32
a 279 33
a 279 34
a 279 285
a 279 286
a 279 287
a 279 288
a 279 289
a 279 290
a 279 331
a 279 467
a 279 419
a 279 35
a 279 291
a 279 292
a 279 111
a 279 294
a 279 296
a 279 297
a 279 36
a 279 37
a 279 171
a 279 298
a 279 299
a 279 38
a 279 172
a 279 301
a 279 307
a 279 427
a 279 394
a 279 174
a 279 428
a 279 429
a 279 112
a 279 175
a 279 375
a 279 176
a 279 135
a 279 177
a 279 178
a 279 179
a 279 136
a 279 309
a 279 40
a 279 41
a 279 113
a 279 42
a 279 43
a 279 44
a 279 45
a 279 46
a 279 114
a 279 47
a 279 48
a 279 49
a 279 115
a 279 50
a 279 51
a 279 52
a 279 53
a 279 54
a 279 55
a 279 181
a 279 56
a 279 57
a 279 58
a 279 59
a 279 60
a 279 99
a 279 183
a 279 61
a 279 396
a 279 62
a 279 184
a 279 63
a 279 185
a 279 369
a 279 413
a 279 330
a 279 284
a 279 416
a 279 417
a 279 418
a 279 170
a 279 393
a 279 465
a 279 466
a 279 372
a 279 373
a 279 420
a 279 421
a 279 422
a 279 468
a 279 469
a 279 423
a 279 293
a 279 295
a 279 470
a 279 425
a 279 426
a 279 300
a 279 302
a 279 303
a 279 304
a 279 471
a 279 472
a 279 305
a 279 173
a 279 306
a 279 144
a 279 374
a 279 430
a 279 308
a 279 432
a 279 436
a 411 314
a 411 17
a 411 255
a 411 25
a 411 256
a 411 26
a 411 407
a 411 267
a 411 27
a 411 269
a 411 270
a 411 271
a 411 30
a 411 167
a 411 276
a 411 31
a 411 325
a 411 278
a 411 368
a 411 279
a 411 148
a 411 84
a 411 10
a 411 102
a 411 139
a 411 104
a 411 13
a 411 106
a 411 107
a 411 16
a 411 20
a 411 240
a 411 21
a 411 242
a 411 22
a 411 127
a 411 128
a 411 251
a 411 460
a 411 362
a 411 257
a 411 260
a 411 261
a 411 263
a 411 264
a 411 406
a 411 265
a 411 266
a 411 323
a 411 363
a 411 110
a 411 28
a 411 29
a 411 274
a 411 366
a 411 275
a 411 168
a 411 329
a 411 414
a 411 280
a 411 281
a 411 282
a 411 371
a 411 283
a 411 415
a 411 32
a 411 34
a 411 287
a 411 288
a 411 289
a 411 290
a 411 331
a 411 111
a 411 299
a 411 38
a 411 301
a 411 394
a 411 41
a 411 113
a 411 42
a 411 44
a 411 46
a 411 114
a 411 47
a 411 48
a 411 49
a 411 115
a 411 50
a 411 51
a 411 52
a 411 53
a 411 54
a 411 55
a 411 181
a 411 56
a 411 57
a 411 58
a 411 59
a 411 60
a 411 99
a 411 61
a 411 62
a 411 63
a 411 185
a 411 33
a 411 421
a 411 292
a 411 293
a 411 172
a 411 304
a 411 305
a 411 307
a 330 314
a 330 316
a 330 318
a 330 7
a 330 8
a 330 186
a 330 187
a 330 188
a 330 189
a 330 332
a 330 190
a 330 191
a 330 192
a 330 193
a 330 194
a 330 195
a 330 196
a 330 333
a 330 197
a 330 198
a 330 199
a 330 200
a 330 201
a 330 202
a 330 203
a 330 204
a 330 206
a 330 207
a 330 208
a 330 209
a 330 340
a 330 148
a 330 214
a 330 346
a 330 221
a 330 104
a 330 225
a 330 402
a 330 17
a 330 98
a 330 128
a 330 164
a 330 251
a 330 255
a 330 361
a 330 25
a 330 479
a 330 256
a 330 26
a 330 407
a 330 267
a 330 27
a 330 269
a 330 408
a 330 270
a 330 271
a 330 110
a 330 30
a 330 275
a 330 167
a 330 276
a 330 168
a 330 277
a 330 325
a 330 326
a 330 368
a 330 384
a 330 280
a 330 281
a 330 64
a 330 84
a 330 10
a 330 102
a 330 151
a 330 397
a 330 441
a 330 477
a 330 378
a 330 139
a 330 220
a 330 228
a 330 13
a 330 141
a 330 142
a 330 105
a 330 232
a 330 154
a 330 155
a 330 106
a 330 107
a 330 16
a 330 96
a 330 20
a 330 236
a 330 108
a 330 240
a 330 21
a 330 242
a 330 22
a 330 127
a 330 23
a 330 252
a 330 253
a 330 24
a 330 460
a 330 362
a 330 257
a 330 260
a 330 263
a 330 264
a 330 406
a 330 265
a 330 266
a 330 323
a 330 363
a 330 129
a 330 28
a 330 274
a 330 366
a 330 367
a 330 278
a 330 279
a 330 282
a 330 371
a 330 283
a 330 415
a 330 32
a 330 34
a 330 285
a 330 287
a 330 288
a 330 289
a 330 290
a 330 422
a 330 292
a 330 111
a 330 297
a 330 38
a 330 307
a 330 427
a 330 144
a 330 394
a 330 174
a 330 112
a 330 135
a 330 41
a 330 113
a 330 42
a 330 43
a 330 44
a 330 46
a 330 114
a 330 47
a 330 48
a 330 49
a 330 115
a 330 50
a 330 51
a 330 52
a 330 53
a 330 54
a 330 55
a 330 181
a 330 56
a 330 57
a 330 58
a 330 59
a 330 60
a 330 99
a 330 183
a 330 61
a 330 62
a 330 63
a 330 185
a 330 465
a 330 372
a 330 373
a 330 420
a 330 421
a 330 468
a 330 423
a 330 291
a 330 37
a 330 171
a 330 301
a 330 302
a 330 303
a 330 304
a 330 428
a 289 314
a 289 315
a 289 316
a 289 318
a 289 317
a 289 7
a 289 8
a 289 217
a 289 346
a 289 439
a 289 221
a 289 104
a 289 229
a 289 398
a 289 400
a 289 401
a 289 402
a 289 451
a 289 155
a 289 106
a 289 107
a 289 15
a 289 403
a 289 17
a 289 352
a 289 20
a 289 97
a 289 98
a 289 143
a 289 21
a 289 241
a 289 127
a 289 128
a 289 23
a 289 164
a 289 245
a 289 355
a 289 356
a 289 359
a 289 251
a 289 255
a 289 25
a 289 256
a 289 26
a 289 263
a 289 265
a 289 266
a 289 324
a 289 365
a 289 407
a 289 267
a 289 268
a 289 27
a 289 269
a 289 408
a 289 462
a 289 270
a 289 271
a 289 272
a 289 110
a 289 28
a 289 29
a 289 273
a 289 366
a 289 30
a 289 275
a 289 167
a 289 276
a 289 168
a 289 31
a 289 169
a 289 277
a 289 325
a 289 409
a 289 410
a 289 326
a 289 327
a 289 328
a 289 278
a 289 368
a 289 279
a 289 329
a 289 369
a 289 411
a 289 384
a 289 412
a 289 413
a 289 414
a 289 370
a 289 280
a 289 281
a 289 282
a 289 330
a 289 283
a 289 415
a 289 32
a 289 33
a 289 34
a 289 284
a 289 416
a 289 417
a 289 418
a 289 170
a 289 393
a 289 465
a 289 285
a 289 466
a 289 372
a 289 286
a 289 287
a 289 288
a 289 119
a 289 6
a 289 148
a 289 149
a 289 64
a 289 65
a 289 66
a 289 84
a 289 138
a 289 10
a 289 102
a 289 150
a 289 151
a 289 377
a 289 441
a 289 378
a 289 220
a 289 222
a 289 228
a 289 13
a 289 141
a 289 105
a 289 232
a 289 233
a 289 158
a 289 14
a 289 133
a 289 134
a 289 16
a 289 159
a 289 319
a 289 236
a 289 237
a 289 239
a 289 240
a 289 22
a 289 392
a 289 161
a 289 162
a 289 247
a 289 252
a 289 253
a 289 322
a 289 460
a 289 362
a 289 257
a 289 259
a 289 260
a 289 261
a 289 264
a 289 406
a 289 323
a 289 363
a 289 461
a 289 274
a 289 464
a 289 290
a 289 331
a 289 467
a 289 419
a 289 35
a 289 292
a 289 111
a 289 294
a 289 295
a 289 296
a 289 297
a 289 425
a 289 37
a 289 171
a 289 38
a 289 172
a 289 301
a 289 304
a 289 173
a 289 307
a 289 394
a 289 174
a 289 429
a 289 112
a 289 175
a 289 375
a 289 176
a 289 430
a 289 135
a 289 177
a 289 179
a 289 136
a 289 41
a 289 113
a 289 42
a 289 43
a 289 44
a 289 46
a 289 114
a 289 47
a 289 48
a 289 49
a 289 115
a 289 50
a 289 51
a 289 52
a 289 53
a 289 54
a 289 55
a 289 181
a 289 56
a 289 57
a 289 58
a 289 59
a 289 60
a 289 99
a 289 183
a 289 61
a 289 62
a 289 184
a 289 63
a 289 185
a 289 373
a 289 420
a 289 421
a 289 422
a 289 468
a 289 469
a 289 423
a 289 291
a 289 298
a 289 426
a 289 299
a 289 300
a 289 302
a 289 303
a 289 471
a 289 472
a 289 306
a 289 427
a 289 144
a 289 428
a 289 308
a 289 473
a 289 432
a 289 40
a 289 45
a 331 314
a 331 318
a 331 317
a 331 7
a 331 8
a 331 186
a 331 188
a 331 189
a 331 192
a 331 193
a 331 196
a 331 197
a 331 198
a 331 199
a 331 201
a 331 202
a 331 335
a 331 336
a 331 203
a 331 338
a 331 207
a 331 208
a 331 209
a 331 148
a 331 342
a 331 438
a 331 210
a 331 211
a 331 212
a 331 213
a 331 343
a 331 214
a 331 215
a 331 216
a 331 345
a 331 221
a 331 17
a 331 20
a 331 21
a 331 255
a 331 25
a 331 256
a 331 26
a 331 266
a 331 323
a 331 363
a 331 364
a 331 365
a 331 407
a 331 267
a 331 268
a 331 27
a 331 269
a 331 408
a 331 462
a 331 270
a 331 271
a 331 272
a 331 30
a 331 464
a 331 167
a 331 276
a 331 277
a 331 409
a 331 368
a 331 279
a 331 369
a 331 411
a 331 280
a 331 371
a 331 415
a 331 33
a 331 34
a 331 285
a 331 289
a 331 84
a 331 10
a 331 102
a 331 151
a 331 397
a 331 104
a 331 228
a 331 12
a 331 13
a 331 141
a 331 232
a 331 107
a 331 134
a 331 16
a 331 236
a 331 237
a 331 240
a 331 127
a 331 128
a 331 164
a 331 251
a 331 253
a 331 460
a 331 362
a 331 258
a 331 261
a 331 263
a 331 264
a 331 406
a 331 265
a 331 274
a 331 275
a 331 168
a 331 278
a 331 384
a 331 32
a 331 287
a 331 290
a 331 467
a 331 111
a 331 294
a 331 296
a 331 297
a 331 36
a 331 301
a 331 304
a 331 144
a 331 394
a 331 135
a 331 41
a 331 113
a 331 42
a 331 43
a 331 44
a 331 46
a 331 114
a 331 47
a 331 48
a 331 49
a 331 115
a 331 50
a 331 51
a 331 52
a 331 53
a 331 54
a 331 55
a 331 181
a 331 56
a 331 57
a 331 58
a 331 59
a 331 60
a 331 99
a 331 183
a 331 61
a 331 62
a 331 63
a 331 185
a 331 419
a 331 292
a 331 37
a 331 298
a 331 426
a 331 299
a 331 38
a 331 302
a 331 303
a 304 314
a 304 315
a 304 8
a 304 17
a 304 255
a 304 25
a 304 256
a 304 26
a 304 264
a 304 267
a 304 27
a 304 269
a 304 270
a 304 271
a 304 30
a 304 167
a 304 276
a 304 168
a 304 277
a 304 325
a 304 409
a 304 328
a 304 414
a 304 280
a 304 281
a 304 289
a 304 331
a 304 38
a 304 301
a 304 119
a 304 6
a 304 318
a 304 148
a 304 64
a 304 84
a 304 10
a 304 102
a 304 151
a 304 377
a 304 349
a 304 378
a 304 220
a 304 104
a 304 222
a 304 225
a 304 228
a 304 13
a 304 400
a 304 105
a 304 232
a 304 154
a 304 106
a 304 157
a 304 107
a 304 14
a 304 133
a 304 134
a 304 16
a 304 159
a 304 236
a 304 240
a 304 21
a 304 22
a 304 127
a 304 128
a 304 23
a 304 164
a 304 251
a 304 252
a 304 253
a 304 361
a 304 460
a 304 257
a 304 260
a 304 261
a 304 263
a 304 406
a 304 265
a 304 266
a 304 363
a 304 461
a 304 272
a 304 110
a 304 29
a 304 273
a 304 274
a 304 366
a 304 464
a 304 275
a 304 278
a 304 368
a 304 279
a 304 329
a 304 411
a 304 282
a 304 330
a 304 371
a 304 283
a 304 415
a 304 32
a 304 33
a 304 34
a 304 284
a 304 285
a 304 288
a 304 290
a 304 467
a 304 292
a 304 111
a 304 294
a 304 296
a 304 297
a 304 36
a 304 37
a 304 171
a 304 172
a 304 173
a 304 307
a 304 394
a 304 429
a 304 112
a 304 135
a 304 179
a 304 136
a 304 41
a 304 113
a 304 42
a 304 43
a 304 44
a 304 46
a 304 114
a 304 47
a 304 48
a 304 49
a 304 115
a 304 50
a 304 51
a 304 52
a 304 53
a 304 54
a 304 55
a 304 181
a 304 56
a 304 57
a 304 58
a 304 59
a 304 60
a 304 99
a 304 183
a 304 61
a 304 62
a 304 63
a 304 185
a 304 306
a 304 427
a 304 436
a 249 315
a 249 318
a 249 186
a 249 187
a 249 188
a 249 189
a 249 332
a 249 190
a 249 191
a 249 192
a 249 193
a 249 194
a 249 195
a 249 196
a 249 333
a 249 197
a 249 198
a 249 199
a 249 200
a 249 334
a 249 201
a 249 202
a 249 335
a 249 336
a 249 203
a 249 204
a 249 205
a 249 206
a 249 337
a 249 207
a 249 208
a 249 209
a 249 339
a 249 340
a 249 148
a 249 341
a 249 9
a 249 395
a 249 342
a 249 438
a 249 212
a 249 213
a 249 214
a 249 215
a 249 344
a 249 216
a 249 345
a 249 248
a 249 119
a 249 6
a 249 7
a 249 64
a 249 65
a 249 66
a 249 84
a 249 10
a 249 101
a 249 102
a 249 151
a 249 349
a 249 220
a 249 104
a 249 228
a 249 105
a 249 232
a 249 233
a 249 155
a 249 106
a 249 158
a 249 107
a 249 14
a 249 133
a 249 134
a 249 16
a 249 159
a 249 17
a 249 319
a 249 20
a 249 320
a 249 240
a 249 21
a 249 241
a 249 22
a 249 127
a 249 23
a 249 164
a 249 244
a 249 250
a 249 321
a 249 251
a 249 253
a 249 24
a 249 255
a 249 264
a 249 28
a 249 273
a 249 30
a 249 167
a 249 325
a 249 279
a 249 32
a 249 34
a 249 35
a 249 292
a 249 111
a 249 36
a 249 37
a 249 38
a 249 172
a 249 394
a 249 429
a 249 112
a 249 175
a 249 135
a 249 179
a 249 136
a 249 433
a 249 40
a 249 41
a 249 113
a 249 42
a 249 43
a 249 44
a 249 45
a 249 46
a 249 114
a 249 47
a 249 48
a 249 49
a 249 115
a 249 50
a 249 51
a 249 52
a 249 53
a 249 54
a 249 55
a 249 181
a 249 56
a 249 57
a 249 58
a 249 59
a 249 60
a 249 99
a 249 183
a 249 61
a 249 62
a 249 184
a 249 63
a 249 166
a 249 254
a 249 368
a 249 291
a 460 315
a 460 318
a 460 217
a 460 346
a 460 439
a 460 149
a 460 347
a 460 348
a 460 81
a 460 126
a 460 102
a 460 151
a 460 218
a 460 399
a 460 141
a 460 142
a 460 107
a 460 17
a 460 18
a 460 319
a 460 96
a 460 235
a 460 352
a 460 20
a 460 239
a 460 240
a 460 22
a 460 127
a 460 128
a 460 23
a 460 243
a 460 161
a 460 459
a 460 164
a 460 109
a 460 245
a 460 246
a 460 356
a 460 358
a 460 247
a 460 165
a 460 250
a 460 321
a 460 251
a 460 252
a 460 253
a 460 24
a 460 254
a 460 360
a 460 322
a 460 255
a 460 361
a 460 25
a 460 479
a 460 480
a 460 256
a 460 26
a 460 148
a 460 10
a 460 232
a 460 106
a 460 16
a 460 21
a 460 362
a 460 257
a 460 258
a 460 259
a 460 260
a 460 261
a 460 274
a 460 366
a 460 283
a 460 415
a 460 32
a 460 34
a 460 394
a 460 41
a 460 113
a 460 42
a 460 43
a 460 44
a 460 46
a 460 114
a 460 47
a 460 48
a 460 49
a 460 115
a 460 50
a 460 51
a 460 52
a 460 53
a 460 54
a 460 55
a 460 181
a 460 56
a 460 57
a 460 58
a 460 59
a 460 60
a 460 99
a 460 61
a 460 62
a 460 63
a 460 262
a 460 263
a 460 264
a 460 406
a 460 265
a 460 266
a 460 323
a 460 363
a 460 461
a 460 129
a 460 324
a 460 364
a 460 365
a 460 407
a 460 267
a 460 268
a 460 27
a 460 269
a 460 408
a 460 462
a 460 270
a 460 271
a 460 272
a 460 130
a 460 110
a 460 463
a 460 28
a 460 29
a 460 273
a 460 30
a 460 464
a 460 275
a 460 367
a 460 167
a 460 276
a 460 168
a 460 31
a 460 169
a 460 277
a 460 325
a 460 409
a 460 410
a 460 326
a 460 327
a 460 328
a 460 278
a 460 368
a 460 279
a 460 329
a 460 369
a 460 411
a 460 384
a 460 412
a 460 413
a 460 414
a 460 370
a 460 280
a 460 281
a 460 282
a 460 330
a 460 371
a 460 33
a 460 284
a 460 416
a 460 417
a 460 418
a 460 170
a 460 393
a 460 465
a 460 285
a 460 466
a 460 372
a 460 286
a 460 287
a 460 288
a 460 289
a 460 290
a 460 331
a 460 467
a 460 419
a 460 373
a 460 420
a 460 421
a 460 422
a 460 468
a 460 469
a 460 423
a 460 35
a 460 291
a 460 292
a 460 111
a 460 424
a 460 293
a 460 294
a 460 295
a 460 296
a 460 297
a 460 36
a 460 470
a 460 425
a 460 37
a 460 171
a 460 298
a 460 426
a 460 299
a 460 38
a 460 300
a 460 172
a 460 301
a 460 302
a 460 303
a 460 304
a 460 471
a 460 173
a 460 306
a 460 307
a 460 427
a 460 144
a 460 174
a 460 428
a 460 429
a 460 112
a 460 175
a 460 176
a 460 430
a 460 431
a 460 308
a 460 135
a 460 136
a 460 432
a 460 39
a 460 433
a 460 309
a 460 40
a 292 315
a 292 317
a 292 7
a 292 186
a 292 187
a 292 188
a 292 189
a 292 332
a 292 190
a 292 191
a 292 192
a 292 193
a 292 194
a 292 195
a 292 196
a 292 333
a 292 197
a 292 198
a 292 199
a 292 200
a 292 334
a 292 201
a 292 202
a 292 335
a 292 336
a 292 203
a 292 204
a 292 205
a 292 206
a 292 337
a 292 207
a 292 208
a 292 209
a 292 339
a 292 340
a 292 148
a 292 341
a 292 9
a 292 395
a 292 342
a 292 438
a 292 210
a 292 211
a 292 212
a 292 213
a 292 343
a 292 214
a 292 215
a 292 345
a 292 217
a 292 346
a 292 439
a 292 348
a 292 227
a 292 448
a 292 402
a 292 17
a 292 98
a 292 21
a 292 128
a 292 164
a 292 244
a 292 356
a 292 247
a 292 249
a 292 250
a 292 166
a 292 321
a 292 252
a 292 253
a 292 360
a 292 255
a 292 256
a 292 26
a 292 362
a 292 257
a 292 260
a 292 261
a 292 263
a 292 264
a 292 406
a 292 265
a 292 323
a 292 363
a 292 324
a 292 365
a 292 407
a 292 267
a 292 27
a 292 269
a 292 270
a 292 271
a 292 272
a 292 110
a 292 28
a 292 29
a 292 273
a 292 366
a 292 275
a 292 367
a 292 167
a 292 31
a 292 169
a 292 327
a 292 368
a 292 279
a 292 329
a 292 369
a 292 384
a 292 370
a 292 280
a 292 281
a 292 330
a 292 283
a 292 32
a 292 33
a 292 34
a 292 284
a 292 416
a 292 417
a 292 418
a 292 170
a 292 393
a 292 465
a 292 285
a 292 372
a 292 286
a 292 287
a 292 288
a 292 289
a 292 290
a 292 419
a 292 373
a 292 420
a 292 421
a 292 422
a 292 468
a 292 469
a 292 423
a 292 35
a 292 291
a 292 119
a 292 6
a 292 314
a 292 316
a 292 318
a 292 64
a 292 65
a 292 66
a 292 84
a 292 138
a 292 10
a 292 89
a 292 102
a 292 151
a 292 397
a 292 441
a 292 477
a 292 378
a 292 139
a 292 220
a 292 104
a 292 228
a 292 141
a 292 142
a 292 105
a 292 232
a 292 154
a 292 155
a 292 106
a 292 158
a 292 107
a 292 14
a 292 15
a 292 133
a 292 134
a 292 16
a 292 159
a 292 96
a 292 20
a 292 236
a 292 108
a 292 240
a 292 22
a 292 127
a 292 23
a 292 251
a 292 24
a 292 322
a 292 361
a 292 460
a 292 259
a 292 266
a 292 129
a 292 274
a 292 30
a 292 168
a 292 411
a 292 282
a 292 371
a 292 415
a 292 331
a 292 467
a 292 111
a 292 293
a 292 294
a 292 295
a 292 296
a 292 297
a 292 425
a 292 37
a 292 171
a 292 38
a 292 307
a 292 144
a 292 394
a 292 174
a 292 428
a 292 429
a 292 112
a 292 175
a 292 135
a 292 177
a 292 179
a 292 136
a 292 39
a 292 309
a 292 40
a 292 41
a 292 113
a 292 42
a 292 43
a 292 44
a 292 46
a 292 114
a 292 47
a 292 48
a 292 49
a 292 115
a 292 50
a 292 51
a 292 52
a 292 53
a 292 54
a 292 55
a 292 181
a 292 56
a 292 57
a 292 58
a 292 59
a 292 60
a 292 99
a 292 183
a 292 61
a 292 396
a 292 62
a 292 184
a 292 63
a 292 185
a 292 36
a 292 298
a 292 299
a 292 172
a 292 301
a 292 302
a 292 303
a 292 304
a 292 471
a 292 472
a 292 305
a 292 173
a 292 306
a 292 427
a 292 308
a 306 315
a 306 217
a 306 346
a 306 399
a 306 255
a 306 25
a 306 256
a 306 26
a 306 270
a 306 271
a 306 30
a 306 275
a 306 167
a 306 276
a 306 168
a 306 281
a 306 283
a 306 170
a 306 286
a 306 290
a 306 294
a 306 297
a 306 38
a 306 300
a 306 172
a 306 301
a 306 302
a 306 303
a 306 119
a 306 6
a 306 148
a 306 64
a 306 65
a 306 66
a 306 84
a 306 138
a 306 10
a 306 102
a 306 151
a 306 220
a 306 446
a 306 104
a 306 222
a 306 225
a 306 12
a 306 13
a 306 400
a 306 105
a 306 232
a 306 154
a 306 106
a 306 157
a 306 107
a 306 14
a 306 133
a 306 134
a 306 16
a 306 159
a 306 17
a 306 20
a 306 236
a 306 97
a 306 240
a 306 21
a 306 22
a 306 127
a 306 128
a 306 164
a 306 109
a 306 251
a 306 460
a 306 362
a 306 257
a 306 261
a 306 263
a 306 264
a 306 406
a 306 265
a 306 266
a 306 323
a 306 363
a 306 461
a 306 129
a 306 267
a 306 269
a 306 110
a 306 28
a 306 29
a 306 273
a 306 274
a 306 366
a 306 367
a 306 279
a 306 329
a 306 280
a 306 282
a 306 371
a 306 34
a 306 284
a 306 287
a 306 288
a 306 289
a 306 291
a 306 292
a 306 111
a 306 295
a 306 296
a 306 425
a 306 37
a 306 304
a 306 307
a 306 394
a 306 174
a 306 428
a 306 429
a 306 112
a 306 175
a 306 375
a 306 135
a 306 177
a 306 179
a 306 136
a 306 474
a 306 39
a 306 41
a 306 113
a 306 42
a 306 43
a 306 44
a 306 45
a 306 46
a 306 114
a 306 47
a 306 48
a 306 49
a 306 115
a 306 50
a 306 51
a 306 52
a 306 53
a 306 54
a 306 55
a 306 181
a 306 56
a 306 57
a 306 58
a 306 59
a 306 60
a 306 311
a 306 99
a 306 183
a 306 61
a 306 62
a 306 184
a 306 63
a 306 185
a 306 144
a 236 316
a 236 217
a 236 346
a 236 348
a 236 65
a 236 70
a 236 73
a 236 80
a 236 90
a 236 101
a 236 95
a 236 151
a 236 397
a 236 218
a 236 377
a 236 441
a 236 349
a 236 477
a 236 378
a 236 11
a 236 139
a 236 103
a 236 219
a 236 220
a 236 350
a 236 152
a 236 446
a 236 391
a 236 221
a 236 104
a 236 223
a 236 225
a 236 226
a 236 227
a 236 228
a 236 12
a 236 229
a 236 447
a 236 398
a 236 399
a 236 400
a 236 401
a 236 402
a 236 140
a 236 141
a 236 142
a 236 232
a 236 233
a 236 154
a 236 155
a 236 106
a 236 156
a 236 158
a 236 107
a 236 15
a 236 403
a 236 133
a 236 134
a 236 484
a 236 159
a 236 17
a 236 18
a 236 19
a 236 319
a 236 96
a 236 352
a 236 20
a 236 119
a 236 132
a 236 121
a 236 147
a 236 137
a 236 6
a 236 314
a 236 315
a 236 318
a 236 317
a 236 7
a 236 8
a 236 148
a 236 149
a 236 64
a 236 66
a 236 67
a 236 74
a 236 83
a 236 84
a 236 138
a 236 10
a 236 91
a 236 102
a 236 150
a 236 442
a 236 386
a 236 105
a 236 14
a 236 16
a 236 404
a 236 455
a 236 237
a 236 238
a 236 239
a 236 108
a 236 320
a 236 240
a 236 21
a 236 22
a 236 485
a 236 127
a 236 128
a 236 161
a 236 162
a 236 163
a 236 164
a 236 166
a 236 251
a 236 253
a 236 24
a 236 254
a 236 322
a 236 255
a 236 256
a 236 362
a 236 257
a 236 258
a 236 259
a 236 260
a 236 261
a 236 406
a 236 129
a 236 324
a 236 110
a 236 273
a 236 30
a 236 275
a 236 167
a 236 279
a 236 280
a 236 281
a 236 32
a 236 34
a 236 285
a 236 467
a 236 35
a 236 291
a 236 111
a 236 38
a 236 172
a 236 307
a 236 394
a 236 174
a 236 429
a 236 112
a 236 175
a 236 176
a 236 135
a 236 177
a 236 179
a 236 136
a 236 40
a 236 41
a 236 113
a 236 42
a 236 43
a 236 44
a 236 45
a 236 46
a 236 114
a 236 47
a 236 48
a 236 49
a 236 115
a 236 50
a 236 51
a 236 52
a 236 53
a 236 54
a 236 55
a 236 181
a 236 56
a 236 57
a 236 58
a 236 59
a 236 60
a 236 99
a 236 183
a 236 61
a 236 396
a 236 62
a 236 184
a 236 63
a 236 185
a 236 97
a 236 98
a 236 143
a 236 242
a 236 353
a 236 23
a 236 392
a 236 456
a 236 243
a 236 457
a 236 458
a 236 459
a 236 244
a 236 356
a 236 252
a 236 360
a 236 361
a 236 26
a 236 263
a 236 264
a 236 265
a 236 266
a 236 364
a 236 407
a 236 267
a 236 268
a 236 27
a 236 269
a 236 271
a 236 272
a 236 130
a 236 463
a 236 28
a 236 29
a 236 274
a 236 366
a 236 464
a 236 367
a 236 276
a 236 168
a 236 31
a 236 169
a 236 325
a 236 326
a 236 384
a 236 412
a 236 370
a 236 330
a 236 283
a 236 33
a 236 284
a 236 416
a 236 417
a 236 170
a 236 372
a 236 286
a 236 287
a 236 288
a 236 289
a 236 290
a 236 331
a 236 419
a 236 373
a 236 421
a 236 422
a 236 468
a 236 423
a 236 292
a 236 424
a 236 293
a 236 294
a 236 295
a 236 296
a 236 297
a 236 36
a 236 425
a 236 37
a 236 171
a 236 298
a 236 426
a 236 299
a 236 300
a 236 301
a 236 302
a 236 303
a 236 304
a 236 471
a 236 472
a 236 173
a 236 306
a 236 427
a 236 144
a 236 374
a 236 428
a 236 430
a 236 431
a 236 308
a 236 473
a 236 178
a 236 474
a 236 475
a 236 432
a 236 39
a 236 376
a 236 309
a 267 316
a 267 318
a 267 7
a 267 8
a 267 186
a 267 187
a 267 188
a 267 189
a 267 190
a 267 191
a 267 192
a 267 193
a 267 194
a 267 195
a 267 196
a 267 333
a 267 197
a 267 198
a 267 199
a 267 200
a 267 334
a 267 201
a 267 202
a 267 335
a 267 203
a 267 204
a 267 205
a 267 207
a 267 208
a 267 209
a 267 339
a 267 340
a 267 148
a 267 9
a 267 395
a 267 342
a 267 438
a 267 210
a 267 211
a 267 212
a 267 213
a 267 343
a 267 214
a 267 215
a 267 344
a 267 216
a 267 345
a 267 226
a 267 227
a 267 17
a 267 241
a 267 128
a 267 244
a 267 245
a 267 355
a 267 166
a 267 359
a 267 24
a 267 256
a 267 26
a 267 324
a 267 119
a 267 6
a 267 314
a 267 149
a 267 64
a 267 65
a 267 66
a 267 84
a 267 138
a 267 10
a 267 102
a 267 150
a 267 220
a 267 386
a 267 104
a 267 228
a 267 13
a 267 105
a 267 232
a 267 233
a 267 154
a 267 106
a 267 158
a 267 107
a 267 14
a 267 15
a 267 133
a 267 134
a 267 16
a 267 159
a 267 160
a 267 319
a 267 236
a 267 108
a 267 240
a 267 21
a 267 22
a 267 127
a 267 23
a 267 161
a 267 162
a 267 164
a 267 247
a 267 251
a 267 253
a 267 254
a 267 255
a 267 361
a 267 25
a 267 479
a 267 460
a 267 362
a 267 257
a 267 259
a 267 260
a 267 261
a 267 263
a 267 264
a 267 406
a 267 265
a 267 266
a 267 323
a 267 461
a 267 27
a 267 269
a 267 408
a 267 271
a 267 110
a 267 28
a 267 29
a 267 273
a 267 274
a 267 366
a 267 30
a 267 275
a 267 167
a 267 276
a 267 168
a 267 277
a 267 325
a 267 278
a 267 368
a 267 279
a 267 329
a 267 411
a 267 280
a 267 281
a 267 282
a 267 330
a 267 371
a 267 283
a 267 32
a 267 34
a 267 288
a 267 289
a 267 290
a 267 331
a 267 467
a 267 35
a 267 292
a 267 111
a 267 294
a 267 36
a 267 37
a 267 171
a 267 38
a 267 301
a 267 304
a 267 394
a 267 174
a 267 429
a 267 112
a 267 175
a 267 176
a 267 135
a 267 177
a 267 178
a 267 179
a 267 136
a 267 41
a 267 113
a 267 42
a 267 43
a 267 44
a 267 45
a 267 46
a 267 114
a 267 47
a 267 48
a 267 49
a 267 115
a 267 50
a 267 51
a 267 52
a 267 53
a 267 54
a 267 55
a 267 181
a 267 56
a 267 57
a 267 58
a 267 59
a 267 60
a 267 99
a 267 183
a 267 61
a 267 62
a 267 184
a 267 63
a 267 185
a 267 268
a 267 462
a 267 270
a 267 31
a 267 409
a 267 326
a 267 327
a 267 328
a 267 412
a 267 414
a 267 284
a 267 286
a 267 297
a 267 298
a 267 172
a 267 302
a 267 303
a 267 472
a 267 306
a 329 316
a 329 7
a 329 186
a 329 187
a 329 188
a 329 189
a 329 332
a 329 190
a 329 191
a 329 193
a 329 194
a 329 195
a 329 196
a 329 197
a 329 198
a 329 199
a 329 200
a 329 201
a 329 202
a 329 203
a 329 204
a 329 205
a 329 206
a 329 337
a 329 338
a 329 437
a 329 207
a 329 208
a 329 209
a 329 340
a 329 148
a 329 341
a 329 214
a 329 346
a 329 221
a 329 104
a 329 17
a 329 128
a 329 255
a 329 256
a 329 26
a 329 266
a 329 323
a 329 129
a 329 324
a 329 365
a 329 267
a 329 27
a 329 271
a 329 110
a 329 28
a 329 29
a 329 273
a 329 275
a 329 167
a 329 276
a 329 168
a 329 31
a 329 169
a 329 277
a 329 325
a 329 409
a 329 328
a 329 278
a 329 368
a 329 279
a 329 314
a 329 318
a 329 84
a 329 10
a 329 102
a 329 220
a 329 12
a 329 13
a 329 105
a 329 232
a 329 106
a 329 107
a 329 133
a 329 16
a 329 20
a 329 21
a 329 22
a 329 127
a 329 166
a 329 251
a 329 322
a 329 25
a 329 460
a 329 362
a 329 257
a 329 259
a 329 260
a 329 263
a 329 264
a 329 406
a 329 265
a 329 363
a 329 274
a 329 366
a 329 30
a 329 384
a 329 281
a 329 282
a 329 371
a 329 283
a 329 32
a 329 34
a 329 288
a 329 289
a 329 290
a 329 292
a 329 111
a 329 394
a 329 429
a 329 112
a 329 135
a 329 136
a 329 41
a 329 113
a 329 42
a 329 44
a 329 46
a 329 114
a 329 47
a 329 48
a 329 49
a 329 115
a 329 50
a 329 51
a 329 52
a 329 53
a 329 54
a 329 55
a 329 181
a 329 56
a 329 57
a 329 58
a 329 59
a 329 60
a 329 311
a 329 99
a 329 183
a 329 61
a 329 62
a 329 63
a 329 185
a 329 369
a 329 411
a 329 412
a 329 413
a 329 414
a 329 370
a 329 280
a 329 33
a 329 284
a 329 416
a 329 465
a 329 285
a 329 373
a 329 421
a 329 423
a 329 293
a 329 294
a 329 297
a 329 299
a 329 38
a 329 300
a 329 172
a 329 301
a 329 302
a 329 304
a 329 305
a 329 306
a 329 307
a 329 40
a 220 318
a 220 317
a 220 7
a 220 186
a 220 187
a 220 188
a 220 189
a 220 332
a 220 190
a 220 193
a 220 194
a 220 195
a 220 196
a 220 197
a 220 198
a 220 199
a 220 200
a 220 201
a 220 202
a 220 203
a 220 205
a 220 207
a 220 208
a 220 340
a 220 148
a 220 341
a 220 395
a 220 342
a 220 212
a 220 213
a 220 214
a 220 215
a 220 344
a 220 216
a 220 345
a 220 217
a 220 346
a 220 348
a 220 64
a 220 65
a 220 66
a 220 123
a 220 67
a 220 124
a 220 68
a 220 125
a 220 69
a 220 70
a 220 72
a 220 73
a 220 81
a 220 83
a 220 84
a 220 126
a 220 93
a 220 95
a 220 150
a 220 151
a 220 218
a 220 377
a 220 443
a 220 444
a 220 482
a 220 219
a 220 117
a 220 119
a 220 147
a 220 137
a 220 6
a 220 149
a 220 138
a 220 10
a 220 102
a 220 397
a 220 390
a 220 441
a 220 478
a 220 349
a 220 477
a 220 378
a 220 442
a 220 11
a 220 139
a 220 103
a 220 481
a 220 386
a 220 350
a 220 445
a 220 446
a 220 483
a 220 391
a 220 12
a 220 142
a 220 105
a 220 232
a 220 154
a 220 155
a 220 106
a 220 157
a 220 158
a 220 107
a 220 14
a 220 15
a 220 133
a 220 134
a 220 16
a 220 159
a 220 404
a 220 160
a 220 17
a 220 96
a 220 455
a 220 20
a 220 236
a 220 237
a 220 238
a 220 239
a 220 320
a 220 21
a 220 22
a 220 485
a 220 127
a 220 128
a 220 23
a 220 392
a 220 161
a 220 459
a 220 162
a 220 163
a 220 164
a 220 165
a 220 253
a 220 322
a 220 255
a 220 25
a 220 256
a 220 263
a 220 264
a 220 269
a 220 110
a 220 28
a 220 273
a 220 167
a 220 168
a 220 279
a 220 412
a 220 280
a 220 282
a 220 32
a 220 34
a 220 170
a 220 422
a 220 469
a 220 35
a 220 111
a 220 36
a 220 37
a 220 38
a 220 471
a 220 173
a 220 174
a 220 112
a 220 175
a 220 176
a 220 135
a 220 177
a 220 178
a 220 179
a 220 136
a 220 474
a 220 475
a 220 432
a 220 40
a 220 41
a 220 113
a 220 42
a 220 43
a 220 44
a 220 45
a 220 180
a 220 46
a 220 114
a 220 47
a 220 48
a 220 49
a 220 115
a 220 50
a 220 51
a 220 52
a 220 53
a 220 54
a 220 55
a 220 181
a 220 56
a 220 57
a 220 58
a 220 59
a 220 60
a 220 311
a 220 99
a 220 183
a 220 61
a 220 62
a 220 184
a 220 63
a 220 185
a 220 152
a 220 153
a 220 221
a 220 104
a 220 223
a 220 225
a 220 229
a 220 448
a 220 230
a 220 398
a 220 231
a 220 449
a 220 399
a 220 400
a 220 401
a 220 402
a 220 451
a 220 140
a 220 141
a 220 234
a 220 403
a 220 405
a 220 452
a 220 97
a 220 240
a 220 353
a 220 243
a 220 457
a 220 458
a 220 109
a 220 249
a 220 250
a 220 251
a 220 26
a 220 257
a 220 260
a 220 265
a 220 266
a 220 363
a 220 129
a 220 267
a 220 268
a 220 27
a 220 271
a 220 272
a 220 274
a 220 30
a 220 275
a 220 367
a 220 276
a 220 31
a 220 277
a 220 326
a 220 328
a 220 278
a 220 368
a 220 329
a 220 384
a 220 370
a 220 281
a 220 330
a 220 283
a 220 33
a 220 284
a 220 285
a 220 372
a 220 286
a 220 287
a 220 288
a 220 289
a 220 290
a 220 419
a 220 373
a 220 420
a 220 421
a 220 291
a 220 292
a 220 293
a 220 294
a 220 295
a 220 296
a 220 297
a 220 171
a 220 298
a 220 426
a 220 299
a 220 300
a 220 172
a 220 301
a 220 302
a 220 303
a 220 304
a 220 472
a 220 305
a 220 306
a 220 307
a 220 427
a 220 144
a 220 394
a 220 429
a 220 430
a 220 431
a 220 308
a 220 473
a 220 39
a 220 309
a 220 435
a 220 182
a 220 312
a 220 116
a 232 318
a 232 317
a 232 7
a 232 8
a 232 217
a 232 346
a 232 149
a 232 348
a 232 64
a 232 65
a 232 66
a 232 123
a 232 124
a 232 68
a 232 69
a 232 70
a 232 72
a 232 383
a 232 73
a 232 74
a 232 78
a 232 81
a 232 82
a 232 83
a 232 84
a 232 86
a 232 10
a 232 126
a 232 95
a 232 102
a 232 151
a 232 397
a 232 218
a 232 377
a 232 378
a 232 443
a 232 444
a 232 219
a 232 220
a 232 386
a 232 350
a 232 445
a 232 446
a 232 391
a 232 221
a 232 104
a 232 222
a 232 223
a 232 224
a 232 225
a 232 227
a 232 12
a 232 13
a 232 229
a 232 448
a 232 230
a 232 398
a 232 231
a 232 399
a 232 400
a 232 401
a 232 402
a 232 141
a 232 142
a 232 105
a 232 6
a 232 148
a 232 390
a 232 349
a 232 477
a 232 11
a 232 139
a 232 103
a 232 140
a 232 154
a 232 155
a 232 106
a 232 158
a 232 107
a 232 133
a 232 134
a 232 16
a 232 404
a 232 17
a 232 96
a 232 352
a 232 20
a 232 236
a 232 237
a 232 238
a 232 239
a 232 97
a 232 320
a 232 21
a 232 22
a 232 127
a 232 128
a 232 164
a 232 109
a 232 253
a 232 255
a 232 264
a 232 129
a 232 271
a 232 414
a 232 32
a 232 34
a 232 35
a 232 111
a 232 297
a 232 144
a 232 394
a 232 112
a 232 432
a 232 41
a 232 113
a 232 42
a 232 43
a 232 44
a 232 46
a 232 114
a 232 47
a 232 48
a 232 49
a 232 115
a 232 50
a 232 51
a 232 52
a 232 53
a 232 54
a 232 55
a 232 181
a 232 56
a 232 57
a 232 58
a 232 59
a 232 60
a 232 99
a 232 183
a 232 61
a 232 396
a 232 62
a 232 63
a 232 185
a 232 234
a 232 14
a 232 15
a 232 403
a 232 159
a 232 405
a 232 18
a 232 235
a 232 108
a 232 98
a 232 143
a 232 240
a 232 242
a 232 353
a 232 23
a 232 392
a 232 243
a 232 161
a 232 459
a 232 244
a 232 245
a 232 248
a 232 249
a 232 250
a 232 251
a 232 252
a 232 254
a 232 256
a 232 26
a 232 460
a 232 257
a 232 260
a 232 263
a 232 406
a 232 265
a 232 266
a 232 323
a 232 363
a 232 365
a 232 407
a 232 267
a 232 268
a 232 27
a 232 269
a 232 408
a 232 270
a 232 272
a 232 110
a 232 28
a 232 273
a 232 274
a 232 366
a 232 30
a 232 275
a 232 167
a 232 276
a 232 168
a 232 31
a 232 169
a 232 277
a 232 325
a 232 409
a 232 326
a 232 327
a 232 328
a 232 278
a 232 368
a 232 279
a 232 329
a 232 384
a 232 412
a 232 370
a 232 280
a 232 281
a 232 282
a 232 330
a 232 283
a 232 33
a 232 284
a 232 416
a 232 417
a 232 170
a 232 285
a 232 372
a 232 286
a 232 287
a 232 288
a 232 289
a 232 290
a 232 331
a 232 419
a 232 373
a 232 420
a 232 421
a 232 422
a 232 291
a 232 292
a 232 424
a 232 293
a 232 294
a 232 295
a 232 296
a 232 36
a 232 37
a 232 171
a 232 426
a 232 299
a 232 38
a 232 300
a 232 172
a 232 301
a 232 302
a 232 303
a 232 304
a 232 471
a 232 472
a 232 305
a 232 173
a 232 306
a 232 307
a 232 427
a 232 174
a 232 428
a 232 429
a 232 175
a 232 430
a 232 431
a 232 308
a 232 135
a 232 39
a 232 309
a 232 40
a 232 45
a 232 180
a 232 434
a 232 435
a 232 311
a 232 182
a 232 312
a 232 116
a 232 385
a 232 313
a 232 476
a 232 436
a 232 184
a 248 318
a 248 186
a 248 187
a 248 188
a 248 189
a 248 332
a 248 190
a 248 191
a 248 192
a 248 193
a 248 194
a 248 195
a 248 196
a 248 333
a 248 197
a 248 198
a 248 199
a 248 200
a 248 334
a 248 201
a 248 202
a 248 336
a 248 203
a 248 204
a 248 206
a 248 337
a 248 207
a 248 208
a 248 209
a 248 340
a 248 148
a 248 341
a 248 9
a 248 395
a 248 342
a 248 438
a 248 210
a 248 212
a 248 213
a 248 343
a 248 214
a 248 215
a 248 345
a 248 241
a 248 242
a 248 6
a 248 7
a 248 84
a 248 10
a 248 102
a 248 104
a 248 228
a 248 105
a 248 232
a 248 155
a 248 106
a 248 107
a 248 133
a 248 16
a 248 17
a 248 319
a 248 20
a 248 320
a 248 240
a 248 21
a 248 22
a 248 127
a 248 23
a 248 164
a 248 244
a 248 249
a 248 250
a 248 321
a 248 251
a 248 253
a 248 24
a 248 322
a 248 255
a 248 28
a 248 30
a 248 167
a 248 325
a 248 32
a 248 34
a 248 111
a 248 38
a 248 394
a 248 112
a 248 136
a 248 39
a 248 40
a 248 41
a 248 113
a 248 42
a 248 43
a 248 44
a 248 45
a 248 46
a 248 114
a 248 47
a 248 48
a 248 49
a 248 115
a 248 50
a 248 51
a 248 52
a 248 53
a 248 54
a 248 55
a 248 181
a 248 56
a 248 57
a 248 58
a 248 59
a 248 60
a 248 99
a 248 61
a 248 62
a 248 184
a 248 63
a 291 318
a 291 317
a 291 186
a 291 187
a 291 188
a 291 189
a 291 332
a 291 190
a 291 191
a 291 192
a 291 193
a 291 194
a 291 195
a 291 196
a 291 333
a 291 197
a 291 198
a 291 199
a 291 200
a 291 334
a 291 201
a 291 202
a 291 335
a 291 336
a 291 203
a 291 204
a 291 205
a 291 206
a 291 337
a 291 207
a 291 208
a 291 209
a 291 339
a 291 340
a 291 148
a 291 341
a 291 9
a 291 395
a 291 342
a 291 438
a 291 210
a 291 211
a 291 212
a 291 213
a 291 343
a 291 214
a 291 215
a 291 344
a 291 345
a 291 226
a 291 227
a 291 447
a 291 401
a 291 402
a 291 20
a 291 236
a 291 21
a 291 127
a 291 128
a 291 23
a 291 164
a 291 247
a 291 165
a 291 255
a 291 256
a 291 26
a 291 269
a 291 272
a 291 130
a 291 110
a 291 273
a 291 30
a 291 464
a 291 167
a 291 169
a 291 325
a 291 279
a 291 280
a 291 465
a 291 285
a 291 287
a 291 419
a 291 373
a 291 421
a 291 423
a 291 35
a 291 6
a 291 316
a 291 7
a 291 64
a 291 84
a 291 10
a 291 102
a 291 151
a 291 397
a 291 477
a 291 378
a 291 139
a 291 220
a 291 386
a 291 446
a 291 104
a 291 222
a 291 12
a 291 141
a 291 142
a 291 232
a 291 106
a 291 158
a 291 107
a 291 14
a 291 15
a 291 133
a 291 134
a 291 16
a 291 159
a 291 17
a 291 96
a 291 237
a 291 239
a 291 108
a 291 240
a 291 22
a 291 392
a 291 244
a 291 249
a 291 250
a 291 251
a 291 252
a 291 253
a 291 322
a 291 460
a 291 257
a 291 259
a 291 260
a 291 261
a 291 263
a 291 264
a 291 406
a 291 265
a 291 266
a 291 323
a 291 363
a 291 129
a 291 271
a 291 28
a 291 274
a 291 366
a 291 275
a 291 168
a 291 31
a 291 368
a 291 281
a 291 282
a 291 330
a 291 283
a 291 32
a 291 34
a 291 288
a 291 289
a 291 290
a 291 467
a 291 292
a 291 111
a 291 296
a 291 297
a 291 470
a 291 37
a 291 171
a 291 38
a 291 427
a 291 144
a 291 394
a 291 174
a 291 429
a 291 112
a 291 431
a 291 135
a 291 179
a 291 136
a 291 40
a 291 41
a 291 113
a 291 42
a 291 43
a 291 44
a 291 46
a 291 114
a 291 47
a 291 48
a 291 49
a 291 115
a 291 50
a 291 51
a 291 52
a 291 53
a 291 54
a 291 55
a 291 181
a 291 56
a 291 57
a 291 58
a 291 59
a 291 60
a 291 99
a 291 183
a 291 61
a 291 396
a 291 62
a 291 184
a 291 63
a 291 185
a 291 294
a 291 295
a 291 298
a 291 426
a 291 299
a 291 302
a 291 303
a 291 471
a 291 472
a 291 305
a 291 173
a 291 306
a 291 309
a 394 318
a 394 218
a 394 221
a 394 104
a 394 222
a 394 379
a 394 223
a 394 224
a 394 225
a 394 226
a 394 227
a 394 380
a 394 228
a 394 381
a 394 12
a 394 13
a 394 232
a 394 154
a 394 17
a 394 18
a 394 19
a 394 319
a 394 96
a 394 235
a 394 352
a 394 20
a 394 236
a 394 237
a 394 238
a 394 239
a 394 97
a 394 108
a 394 98
a 394 320
a 394 143
a 394 240
a 394 21
a 394 241
a 394 242
a 394 22
a 394 353
a 394 127
a 394 128
a 394 23
a 394 164
a 394 109
a 394 244
a 394 245
a 394 354
a 394 246
a 394 355
a 394 356
a 394 357
a 394 358
a 394 247
a 394 165
a 394 248
a 394 249
a 394 250
a 394 166
a 394 359
a 394 321
a 394 251
a 394 252
a 394 253
a 394 24
a 394 254
a 394 360
a 394 322
a 394 255
a 394 361
a 394 25
a 394 256
a 394 26
a 394 460
a 394 362
a 394 257
a 394 258
a 394 259
a 394 260
a 394 261
a 394 263
a 394 264
a 394 406
a 394 265
a 394 266
a 394 323
a 394 363
a 394 461
a 394 129
a 394 324
a 394 364
a 394 365
a 394 407
a 394 267
a 394 268
a 394 27
a 394 269
a 394 408
a 394 462
a 394 270
a 394 271
a 394 272
a 394 130
a 394 110
a 394 463
a 394 28
a 394 29
a 394 273
a 394 274
a 394 366
a 394 30
a 394 464
a 394 275
a 394 367
a 394 167
a 394 276
a 394 168
a 394 31
a 394 169
a 394 277
a 394 325
a 394 409
a 394 410
a 394 326
a 394 327
a 394 328
a 394 278
a 394 368
a 394 279
a 394 329
a 394 369
a 394 411
a 394 384
a 394 412
a 394 413
a 394 414
a 394 370
a 394 280
a 394 281
a 394 282
a 394 330
a 394 371
a 394 283
a 394 415
a 394 32
a 394 33
a 394 34
a 394 284
a 394 416
a 394 417
a 394 418
a 394 170
a 394 393
a 394 465
a 394 285
a 394 466
a 394 372
a 394 286
a 394 287
a 394 288
a 394 289
a 394 290
a 394 331
a 394 467
a 394 419
a 394 373
a 394 420
a 394 421
a 394 422
a 394 468
a 394 469
a 394 423
a 394 35
a 394 291
a 394 292
a 394 111
a 394 424
a 394 293
a 394 294
a 394 295
a 394 296
a 394 297
a 394 36
a 394 470
a 394 425
a 394 37
a 394 171
a 394 298
a 394 426
a 394 299
a 394 38
a 394 300
a 394 172
a 394 301
a 394 302
a 394 303
a 394 304
a 394 471
a 394 472
a 394 305
a 394 173
a 394 306
a 394 307
a 394 427
a 394 144
a 394 117
a 394 119
a 394 148
a 394 64
a 394 65
a 394 66
a 394 80
a 394 84
a 394 138
a 394 10
a 394 89
a 394 101
a 394 102
a 394 151
a 394 397
a 394 390
a 394 441
a 394 349
a 394 477
a 394 378
a 394 11
a 394 139
a 394 103
a 394 219
a 394 220
a 394 391
a 394 141
a 394 142
a 394 105
a 394 155
a 394 106
a 394 158
a 394 107
a 394 14
a 394 133
a 394 134
a 394 16
a 394 159
a 394 404
a 394 392
a 394 429
a 394 112
a 394 175
a 394 135
a 394 177
a 394 179
a 394 136
a 394 432
a 394 40
a 394 41
a 394 113
a 394 42
a 394 43
a 394 44
a 394 45
a 394 46
a 394 114
a 394 47
a 394 48
a 394 49
a 394 115
a 394 50
a 394 51
a 394 52
a 394 53
a 394 54
a 394 55
a 394 181
a 394 56
a 394 57
a 394 58
a 394 59
a 394 60
a 394 99
a 394 183
a 394 61
a 394 396
a 394 62
a 394 184
a 394 63
a 394 185
a 394 374
a 394 174
a 394 428
a 394 375
a 394 176
a 394 430
a 394 431
a 394 308
a 394 473
a 394 178
a 394 474
a 394 475
a 394 39
a 394 376
a 394 433
a 394 309
a 394 182
a 394 312
a 394 116
a 317 119
a 317 147
a 317 316
a 317 318
a 317 7
a 317 8
a 317 148
a 317 210
a 317 216
a 317 149
a 317 64
a 317 65
a 317 66
a 317 84
a 317 138
a 317 10
a 317 102
a 317 150
a 317 220
a 317 105
a 317 232
a 317 154
a 317 106
a 317 157
a 317 158
a 317 14
a 317 15
a 317 133
a 317 134
a 317 16
a 317 159
a 317 160
a 317 17
a 317 18
a 317 20
a 317 240
a 317 21
a 317 22
a 317 128
a 317 23
a 317 161
a 317 162
a 317 163
a 317 164
a 317 244
a 317 165
a 317 253
a 317 255
a 317 480
a 317 258
a 317 27
a 317 270
a 317 28
a 317 273
a 317 275
a 317 167
a 317 168
a 317 277
a 317 409
a 317 279
a 317 280
a 317 281
a 317 282
a 317 283
a 317 32
a 317 34
a 317 286
a 317 287
a 317 289
a 317 331
a 317 422
a 317 291
a 317 292
a 317 111
a 317 294
a 317 36
a 317 37
a 317 38
a 317 172
a 317 307
a 317 174
a 317 112
a 317 175
a 317 176
a 317 135
a 317 177
a 317 178
a 317 179
a 317 136
a 317 40
a 317 41
a 317 113
a 317 42
a 317 43
a 317 44
a 317 45
a 317 180
a 317 46
a 317 114
a 317 47
a 317 48
a 317 49
a 317 115
a 317 50
a 317 51
a 317 52
a 317 53
a 317 54
a 317 55
a 317 181
a 317 56
a 317 57
a 317 58
a 317 59
a 317 60
a 317 99
a 317 183
a 317 61
a 317 62
a 317 184
a 317 63
a 317 185
a 317 441
a 317 391
a 317 155
a 317 19
a 317 96
a 317 455
a 317 236
a 317 237
a 317 97
a 317 108
a 317 98
a 317 320
a 317 143
a 317 241
a 317 242
a 317 24
a 317 324
a 210 317
a 210 6
a 210 7
a 210 148
a 210 10
a 210 102
a 210 377
a 210 378
a 210 104
a 210 223
a 210 225
a 210 380
a 210 16
a 210 17
a 210 96
a 210 20
a 210 240
a 210 21
a 210 241
a 210 242
a 210 22
a 210 127
a 210 128
a 210 23
a 210 164
a 210 244
a 210 245
a 210 356
a 210 248
a 210 250
a 210 359
a 210 321
a 210 24
a 210 254
a 210 255
a 210 256
a 210 265
a 210 365
a 210 407
a 210 267
a 210 268
a 210 27
a 210 269
a 210 270
a 210 28
a 210 30
a 210 275
a 210 277
a 210 410
a 210 327
a 210 285
a 210 288
a 210 331
a 210 291
a 210 292
a 210 294
a 210 38
a 210 307
a 210 427
a 210 39
a 210 309
a 210 41
a 210 42
a 210 43
a 210 44
a 210 46
a 210 114
a 210 48
a 210 49
a 210 115
a 210 50
a 210 51
a 210 53
a 210 54
a 210 55
a 210 56
a 210 57
a 210 58
a 210 59
a 210 60
a 210 99
a 210 61
a 210 62
a 210 63
a 210 185
a 210 47
a 210 184
a 216 317
a 216 6
a 216 7
a 216 148
a 216 347
a 216 84
a 216 10
a 216 102
a 216 378
a 216 139
a 216 220
a 216 104
a 216 225
a 216 12
a 216 401
a 216 402
a 216 106
a 216 16
a 216 17
a 216 235
a 216 20
a 216 240
a 216 21
a 216 22
a 216 127
a 216 128
a 216 23
a 216 244
a 216 249
a 216 250
a 216 24
a 216 254
a 216 255
a 216 267
a 216 27
a 216 269
a 216 271
a 216 28
a 216 29
a 216 30
a 216 275
a 216 277
a 216 409
a 216 281
a 216 288
a 216 331
a 216 111
a 216 36
a 216 38
a 216 112
a 216 135
a 216 41
a 216 113
a 216 42
a 216 43
a 216 44
a 216 45
a 216 46
a 216 114
a 216 47
a 216 48
a 216 49
a 216 115
a 216 50
a 216 51
a 216 53
a 216 54
a 216 55
a 216 56
a 216 57
a 216 58
a 216 59
a 216 60
a 216 99
a 216 61
a 216 62
a 216 63
a 216 185
a 480 317
a 480 21
a 480 255
a 480 148
a 480 104
a 480 228
a 480 17
a 480 20
a 480 256
a 480 460
a 480 259
a 480 271
a 480 274
a 480 366
a 480 275
a 480 167
a 480 279
a 480 280
a 480 281
a 480 282
a 480 283
a 480 34
a 480 287
a 480 288
a 480 467
a 480 307
a 480 41
a 480 113
a 480 42
a 480 44
a 480 114
a 480 47
a 480 48
a 480 49
a 480 50
a 480 53
a 480 54
a 480 55
a 480 56
a 480 57
a 480 58
a 480 59
a 480 183
a 258 317
a 258 347
a 258 348
a 258 140
a 258 154
a 258 107
a 258 134
a 258 452
a 258 17
a 258 18
a 258 19
a 258 319
a 258 96
a 258 235
a 258 352
a 258 20
a 258 236
a 258 237
a 258 97
a 258 108
a 258 98
a 258 320
a 258 143
a 258 240
a 258 21
a 258 485
a 258 128
a 258 244
a 258 246
a 258 247
a 258 165
a 258 255
a 258 25
a 258 256
a 258 26
a 258 460
a 258 362
a 258 257
a 258 6
a 258 314
a 258 315
a 258 316
a 258 318
a 258 148
a 258 16
a 258 127
a 258 253
a 258 361
a 258 259
a 258 260
a 258 261
a 258 262
a 258 28
a 258 29
a 258 167
a 258 279
a 258 371
a 258 283
a 258 32
a 258 34
a 258 467
a 258 394
a 258 41
a 258 113
a 258 42
a 258 43
a 258 44
a 258 46
a 258 114
a 258 47
a 258 48
a 258 49
a 258 115
a 258 50
a 258 51
a 258 52
a 258 53
a 258 54
a 258 55
a 258 181
a 258 56
a 258 57
a 258 58
a 258 59
a 258 60
a 258 61
a 258 62
a 258 184
a 258 63
a 258 185
a 258 263
a 258 264
a 258 406
a 258 265
a 258 266
a 258 363
a 258 129
a 258 324
a 258 268
a 258 27
a 258 269
a 258 408
a 258 270
a 258 271
a 258 130
a 258 110
a 258 274
a 258 30
a 258 367
a 258 280
a 258 285
a 258 331
a 258 293
a 258 297
a 258 36
a 258 470
a 258 37
a 258 171
a 258 38
a 258 172
a 258 301
a 258 305
a 258 375
a 270 317
a 270 186
a 270 187
a 270 188
a 270 189
a 270 332
a 270 190
a 270 191
a 270 192
a 270 193
a 270 194
a 270 195
a 270 196
a 270 333
a 270 197
a 270 198
a 270 199
a 270 200
a 270 334
a 270 201
a 270 202
a 270 335
a 270 336
a 270 203
a 270 204
a 270 205
a 270 206
a 270 337
a 270 207
a 270 208
a 270 209
a 270 339
a 270 340
a 270 148
a 270 9
a 270 395
a 270 438
a 270 210
a 270 212
a 270 213
a 270 214
a 270 215
a 270 344
a 270 345
a 270 268
a 270 269
a 270 6
a 270 314
a 270 318
a 270 7
a 270 8
a 270 84
a 270 10
a 270 102
a 270 104
a 270 225
a 270 228
a 270 13
a 270 402
a 270 141
a 270 142
a 270 105
a 270 232
a 270 233
a 270 155
a 270 106
a 270 107
a 270 16
a 270 17
a 270 108
a 270 240
a 270 21
a 270 22
a 270 127
a 270 128
a 270 164
a 270 166
a 270 251
a 270 253
a 270 24
a 270 255
a 270 361
a 270 25
a 270 479
a 270 256
a 270 460
a 270 362
a 270 258
a 270 259
a 270 260
a 270 261
a 270 262
a 270 263
a 270 264
a 270 265
a 270 266
a 270 323
a 270 267
a 270 27
a 270 271
a 270 110
a 270 29
a 270 273
a 270 274
a 270 366
a 270 30
a 270 275
a 270 167
a 270 328
a 270 368
a 270 279
a 270 411
a 270 281
a 270 282
a 270 330
a 270 371
a 270 283
a 270 34
a 270 284
a 270 285
a 270 372
a 270 288
a 270 289
a 270 290
a 270 331
a 270 467
a 270 35
a 270 292
a 270 111
a 270 304
a 270 306
a 270 307
a 270 394
a 270 112
a 270 135
a 270 41
a 270 113
a 270 42
a 270 43
a 270 44
a 270 46
a 270 114
a 270 47
a 270 48
a 270 49
a 270 115
a 270 50
a 270 51
a 270 52
a 270 53
a 270 54
a 270 55
a 270 181
a 270 56
a 270 57
a 270 58
a 270 59
a 270 60
a 270 99
a 270 183
a 270 61
a 270 62
a 270 184
a 270 63
a 270 185
a 270 413
a 275 317
a 275 186
a 275 187
a 275 188
a 275 189
a 275 332
a 275 190
a 275 191
a 275 192
a 275 193
a 275 194
a 275 195
a 275 196
a 275 333
a 275 197
a 275 198
a 275 199
a 275 200
a 275 334
a 275 201
a 275 202
a 275 335
a 275 336
a 275 203
a 275 204
a 275 206
a 275 337
a 275 338
a 275 207
a 275 208
a 275 209
a 275 148
a 275 341
a 275 9
a 275 395
a 275 342
a 275 438
a 275 210
a 275 211
a 275 212
a 275 213
a 275 343
a 275 214
a 275 215
a 275 344
a 275 216
a 275 345
a 275 217
a 275 346
a 275 439
a 275 123
a 275 67
a 275 124
a 275 68
a 275 78
a 275 83
a 275 84
a 275 85
a 275 387
a 275 86
a 275 138
a 275 10
a 275 126
a 275 101
a 275 93
a 275 440
a 275 218
a 275 139
a 275 104
a 275 226
a 275 227
a 275 398
a 275 402
a 275 140
a 275 141
a 275 142
a 275 17
a 275 18
a 275 19
a 275 319
a 275 96
a 275 352
a 275 20
a 275 236
a 275 237
a 275 238
a 275 239
a 275 97
a 275 108
a 275 98
a 275 320
a 275 143
a 275 240
a 275 21
a 275 127
a 275 128
a 275 23
a 275 164
a 275 244
a 275 245
a 275 246
a 275 356
a 275 251
a 275 255
a 275 361
a 275 25
a 275 480
a 275 256
a 275 26
a 275 257
a 275 259
a 275 260
a 275 261
a 275 264
a 275 265
a 275 323
a 275 461
a 275 324
a 275 365
a 275 407
a 275 267
a 275 27
a 275 269
a 275 408
a 275 270
a 275 271
a 275 110
a 275 28
a 275 273
a 275 30
a 275 119
a 275 6
a 275 314
a 275 316
a 275 318
a 275 7
a 275 64
a 275 65
a 275 66
a 275 102
a 275 441
a 275 220
a 275 386
a 275 12
a 275 13
a 275 105
a 275 232
a 275 233
a 275 154
a 275 106
a 275 107
a 275 14
a 275 133
a 275 134
a 275 16
a 275 159
a 275 22
a 275 247
a 275 250
a 275 166
a 275 253
a 275 460
a 275 362
a 275 263
a 275 406
a 275 266
a 275 363
a 275 272
a 275 29
a 275 274
a 275 366
a 275 167
a 275 276
a 275 168
a 275 31
a 275 169
a 275 409
a 275 326
a 275 278
a 275 368
a 275 279
a 275 329
a 275 280
a 275 281
a 275 282
a 275 330
a 275 371
a 275 283
a 275 32
a 275 34
a 275 284
a 275 285
a 275 372
a 275 286
a 275 287
a 275 288
a 275 289
a 275 290
a 275 467
a 275 35
a 275 292
a 275 111
a 275 294
a 275 296
a 275 297
a 275 36
a 275 37
a 275 171
a 275 38
a 275 172
a 275 301
a 275 306
a 275 307
a 275 427
a 275 394
a 275 174
a 275 429
a 275 112
a 275 175
a 275 176
a 275 135
a 275 177
a 275 178
a 275 179
a 275 136
a 275 41
a 275 113
a 275 42
a 275 43
a 275 44
a 275 45
a 275 46
a 275 114
a 275 47
a 275 48
a 275 49
a 275 115
a 275 50
a 275 51
a 275 52
a 275 53
a 275 54
a 275 55
a 275 181
a 275 56
a 275 57
a 275 58
a 275 59
a 275 60
a 275 99
a 275 183
a 275 61
a 275 62
a 275 184
a 275 63
a 275 185
a 275 277
a 275 325
a 275 410
a 275 327
a 275 328
a 275 411
a 275 384
a 275 412
a 275 414
a 275 370
a 275 415
a 275 33
a 275 465
a 275 466
a 275 331
a 275 373
a 275 420
a 275 421
a 275 422
a 275 468
a 275 423
a 275 291
a 275 298
a 275 426
a 275 299
a 275 300
a 275 302
a 275 303
a 275 304
a 275 472
a 275 305
a 275 144
a 275 428
a 275 308
a 275 433
a 409 317
a 409 8
a 409 338
a 409 208
a 409 215
a 409 216
a 409 346
a 409 348
a 409 17
a 409 235
a 409 21
a 409 255
a 409 256
a 409 26
a 409 461
a 409 27
a 409 29
a 409 275
a 409 277
a 409 325
a 409 119
a 409 314
a 409 318
a 409 148
a 409 149
a 409 64
a 409 84
a 409 10
a 409 102
a 409 104
a 409 228
a 409 13
a 409 105
a 409 232
a 409 154
a 409 106
a 409 107
a 409 14
a 409 133
a 409 134
a 409 16
a 409 159
a 409 240
a 409 22
a 409 127
a 409 128
a 409 23
a 409 251
a 409 253
a 409 460
a 409 362
a 409 257
a 409 261
a 409 263
a 409 264
a 409 406
a 409 266
a 409 323
a 409 363
a 409 267
a 409 271
a 409 110
a 409 273
a 409 274
a 409 366
a 409 30
a 409 167
a 409 276
a 409 168
a 409 278
a 409 368
a 409 279
a 409 329
a 409 281
a 409 282
a 409 283
a 409 32
a 409 33
a 409 34
a 409 287
a 409 288
a 409 289
a 409 290
a 409 331
a 409 419
a 409 111
a 409 294
a 409 296
a 409 297
a 409 38
a 409 172
a 409 301
a 409 304
a 409 394
a 409 429
a 409 112
a 409 135
a 409 179
a 409 136
a 409 41
a 409 113
a 409 42
a 409 43
a 409 44
a 409 46
a 409 114
a 409 47
a 409 48
a 409 49
a 409 115
a 409 50
a 409 51
a 409 52
a 409 53
a 409 54
a 409 55
a 409 181
a 409 56
a 409 57
a 409 58
a 409 59
a 409 60
a 409 99
a 409 183
a 409 61
a 409 62
a 409 63
a 409 185
a 409 280
a 409 418
a 409 466
a 280 317
a 280 346
a 280 123
a 280 88
a 280 218
a 280 378
a 280 139
a 280 220
a 280 221
a 280 104
a 280 222
a 280 223
a 280 225
a 280 447
a 280 398
a 280 140
a 280 107
a 280 17
a 280 18
a 280 19
a 280 96
a 280 235
a 280 352
a 280 20
a 280 236
a 280 237
a 280 238
a 280 239
a 280 97
a 280 108
a 280 98
a 280 320
a 280 143
a 280 240
a 280 21
a 280 242
a 280 22
a 280 485
a 280 127
a 280 128
a 280 23
a 280 243
a 280 457
a 280 164
a 280 109
a 280 244
a 280 165
a 280 251
a 280 252
a 280 253
a 280 360
a 280 255
a 280 480
a 280 256
a 280 26
a 280 261
a 280 265
a 280 266
a 280 323
a 280 267
a 280 27
a 280 130
a 280 110
a 280 274
a 280 30
a 280 275
a 280 367
a 280 167
a 280 31
a 280 277
a 280 325
a 280 326
a 280 278
a 280 368
a 280 279
a 280 369
a 280 411
a 280 384
a 280 412
a 280 414
a 280 119
a 280 6
a 280 316
a 280 318
a 280 148
a 280 149
a 280 64
a 280 65
a 280 66
a 280 84
a 280 138
a 280 10
a 280 102
a 280 150
a 280 151
a 280 397
a 280 441
a 280 391
a 280 380
a 280 228
a 280 12
a 280 13
a 280 141
a 280 105
a 280 232
a 280 233
a 280 106
a 280 158
a 280 14
a 280 15
a 280 133
a 280 134
a 280 16
a 280 159
a 280 392
a 280 161
a 280 162
a 280 163
a 280 247
a 280 254
a 280 322
a 280 460
a 280 362
a 280 257
a 280 258
a 280 259
a 280 260
a 280 263
a 280 264
a 280 406
a 280 363
a 280 461
a 280 271
a 280 28
a 280 29
a 280 273
a 280 366
a 280 276
a 280 168
a 280 409
a 280 410
a 280 329
a 280 281
a 280 282
a 280 330
a 280 371
a 280 283
a 280 415
a 280 32
a 280 33
a 280 34
a 280 285
a 280 286
a 280 287
a 280 288
a 280 289
a 280 290
a 280 331
a 280 467
a 280 35
a 280 291
a 280 292
a 280 111
a 280 293
a 280 294
a 280 296
a 280 297
a 280 37
a 280 171
a 280 38
a 280 172
a 280 301
a 280 304
a 280 307
a 280 427
a 280 394
a 280 174
a 280 428
a 280 429
a 280 112
a 280 175
a 280 176
a 280 135
a 280 177
a 280 179
a 280 136
a 280 40
a 280 41
a 280 113
a 280 42
a 280 43
a 280 44
a 280 46
a 280 114
a 280 47
a 280 48
a 280 49
a 280 115
a 280 50
a 280 51
a 280 52
a 280 53
a 280 54
a 280 55
a 280 181
a 280 56
a 280 57
a 280 58
a 280 59
a 280 60
a 280 99
a 280 183
a 280 61
a 280 396
a 280 62
a 280 184
a 280 63
a 280 185
a 280 466
a 280 419
a 280 468
a 280 423
a 280 426
a 280 302
a 280 306
a 280 308
a 280 473
a 282 317
a 282 7
a 282 8
a 282 192
a 282 209
a 282 217
a 282 346
a 282 439
a 282 149
a 282 347
a 282 348
a 282 122
a 282 67
a 282 124
a 282 68
a 282 70
a 282 72
a 282 73
a 282 10
a 282 126
a 282 89
a 282 90
a 282 91
a 282 93
a 282 95
a 282 151
a 282 218
a 282 377
a 282 219
a 282 220
a 282 153
a 282 391
a 282 398
a 282 449
a 282 399
a 282 402
a 282 107
a 282 17
a 282 18
a 282 20
a 282 21
a 282 241
a 282 127
a 282 128
a 282 23
a 282 164
a 282 245
a 282 246
a 282 355
a 282 250
a 282 359
a 282 251
a 282 24
a 282 255
a 282 361
a 282 25
a 282 479
a 282 480
a 282 256
a 282 26
a 282 362
a 282 257
a 282 260
a 282 261
a 282 263
a 282 264
a 282 406
a 282 265
a 282 266
a 282 323
a 282 363
a 282 461
a 282 129
a 282 324
a 282 365
a 282 407
a 282 267
a 282 268
a 282 27
a 282 269
a 282 408
a 282 462
a 282 270
a 282 271
a 282 272
a 282 130
a 282 110
a 282 28
a 282 29
a 282 273
a 282 274
a 282 30
a 282 464
a 282 275
a 282 367
a 282 167
a 282 276
a 282 168
a 282 31
a 282 169
a 282 277
a 282 325
a 282 409
a 282 410
a 282 326
a 282 327
a 282 328
a 282 278
a 282 368
a 282 279
a 282 329
a 282 369
a 282 411
a 282 384
a 282 412
a 282 413
a 282 414
a 282 370
a 282 280
a 282 281
a 282 6
a 282 314
a 282 318
a 282 148
a 282 64
a 282 84
a 282 102
a 282 104
a 282 228
a 282 13
a 282 105
a 282 232
a 282 154
a 282 106
a 282 14
a 282 133
a 282 134
a 282 16
a 282 159
a 282 22
a 282 460
a 282 283
a 282 32
a 282 34
a 282 289
a 282 35
a 282 111
a 282 38
a 282 394
a 282 429
a 282 112
a 282 135
a 282 179
a 282 136
a 282 41
a 282 113
a 282 42
a 282 43
a 282 44
a 282 46
a 282 114
a 282 47
a 282 48
a 282 49
a 282 115
a 282 50
a 282 51
a 282 52
a 282 53
a 282 54
a 282 55
a 282 181
a 282 56
a 282 57
a 282 58
a 282 59
a 282 60
a 282 99
a 282 183
a 282 61
a 282 62
a 282 184
a 282 63
a 282 185
a 282 330
a 282 371
a 282 415
a 282 33
a 282 284
a 282 416
a 282 417
a 282 418
a 282 170
a 282 465
a 282 285
a 282 466
a 282 372
a 282 286
a 282 288
a 282 290
a 282 419
a 282 373
a 282 420
a 282 421
a 282 422
a 282 468
a 282 469
a 282 423
a 282 291
a 282 292
a 282 293
a 282 294
a 282 295
a 282 296
a 282 297
a 282 425
a 282 37
a 282 171
a 282 298
a 282 426
a 282 299
a 282 300
a 282 172
a 282 301
a 282 302
a 282 303
a 282 304
a 282 471
a 282 472
a 282 173
a 282 306
a 282 307
a 282 427
a 282 144
a 282 428
a 282 308
a 282 40
a 282 45
a 282 436
a 283 317
a 283 7
a 283 8
a 283 192
a 283 209
a 283 217
a 283 346
a 283 439
a 283 348
a 283 153
a 283 221
a 283 104
a 283 398
a 283 400
a 283 401
a 283 402
a 283 451
a 283 107
a 283 17
a 283 18
a 283 20
a 283 97
a 283 21
a 283 241
a 283 127
a 283 128
a 283 23
a 283 164
a 283 245
a 283 246
a 283 355
a 283 250
a 283 359
a 283 251
a 283 252
a 283 24
a 283 255
a 283 361
a 283 25
a 283 479
a 283 480
a 283 256
a 283 26
a 283 460
a 283 362
a 283 257
a 283 258
a 283 259
a 283 260
a 283 261
a 283 262
a 283 263
a 283 264
a 283 406
a 283 265
a 283 266
a 283 323
a 283 363
a 283 461
a 283 365
a 283 407
a 283 267
a 283 268
a 283 27
a 283 269
a 283 408
a 283 270
a 283 271
a 283 272
a 283 110
a 283 28
a 283 29
a 283 273
a 283 366
a 283 30
a 283 464
a 283 275
a 283 367
a 283 167
a 283 276
a 283 168
a 283 31
a 283 169
a 283 277
a 283 325
a 283 409
a 283 410
a 283 326
a 283 327
a 283 328
a 283 278
a 283 368
a 283 279
a 283 329
a 283 369
a 283 411
a 283 384
a 283 412
a 283 413
a 283 414
a 283 370
a 283 280
a 283 281
a 283 282
a 283 330
a 283 371
a 283 119
a 283 6
a 283 318
a 283 148
a 283 64
a 283 65
a 283 66
a 283 84
a 283 138
a 283 10
a 283 102
a 283 441
a 283 378
a 283 139
a 283 220
a 283 228
a 283 12
a 283 13
a 283 450
a 283 105
a 283 232
a 283 154
a 283 106
a 283 14
a 283 133
a 283 134
a 283 16
a 283 159
a 283 236
a 283 240
a 283 22
a 283 253
a 283 322
a 283 274
a 283 32
a 283 33
a 283 34
a 283 285
a 283 288
a 283 289
a 283 290
a 283 467
a 283 419
a 283 292
a 283 111
a 283 294
a 283 296
a 283 297
a 283 37
a 283 171
a 283 299
a 283 38
a 283 172
a 283 301
a 283 306
a 283 307
a 283 427
a 283 394
a 283 174
a 283 429
a 283 112
a 283 175
a 283 135
a 283 177
a 283 179
a 283 136
a 283 41
a 283 113
a 283 42
a 283 43
a 283 44
a 283 46
a 283 114
a 283 47
a 283 48
a 283 49
a 283 115
a 283 50
a 283 51
a 283 52
a 283 53
a 283 54
a 283 55
a 283 181
a 283 56
a 283 57
a 283 58
a 283 59
a 283 60
a 283 311
a 283 99
a 283 183
a 283 61
a 283 62
a 283 184
a 283 63
a 283 185
a 283 415
a 283 284
a 283 416
a 283 170
a 283 465
a 283 466
a 283 372
a 283 287
a 283 373
a 283 420
a 283 421
a 283 422
a 283 469
a 283 423
a 283 291
a 283 293
a 283 425
a 283 298
a 283 426
a 283 300
a 283 302
a 283 303
a 283 304
a 283 471
a 283 472
a 283 173
a 283 144
a 283 308
a 286 317
a 286 217
a 286 346
a 286 439
a 286 348
a 286 21
a 286 128
a 286 164
a 286 263
a 286 27
a 286 269
a 286 273
a 286 366
a 286 275
a 286 167
a 286 279
a 286 370
a 286 280
a 286 281
a 286 284
a 286 416
a 286 372
a 286 119
a 286 6
a 286 148
a 286 64
a 286 65
a 286 66
a 286 84
a 286 138
a 286 10
a 286 102
a 286 150
a 286 220
a 286 225
a 286 105
a 286 232
a 286 154
a 286 106
a 286 107
a 286 14
a 286 15
a 286 133
a 286 134
a 286 16
a 286 159
a 286 17
a 286 20
a 286 236
a 286 240
a 286 22
a 286 127
a 286 161
a 286 162
a 286 247
a 286 255
a 286 256
a 286 26
a 286 460
a 286 362
a 286 257
a 286 261
a 286 264
a 286 406
a 286 265
a 286 266
a 286 323
a 286 267
a 286 271
a 286 272
a 286 110
a 286 28
a 286 274
a 286 30
a 286 282
a 286 32
a 286 34
a 286 287
a 286 288
a 286 289
a 286 290
a 286 419
a 286 292
a 286 111
a 286 293
a 286 294
a 286 295
a 286 296
a 286 297
a 286 38
a 286 306
a 286 307
a 286 394
a 286 174
a 286 428
a 286 429
a 286 112
a 286 175
a 286 375
a 286 176
a 286 135
a 286 177
a 286 179
a 286 136
a 286 41
a 286 113
a 286 42
a 286 43
a 286 44
a 286 46
a 286 114
a 286 47
a 286 48
a 286 49
a 286 115
a 286 50
a 286 51
a 286 52
a 286 53
a 286 54
a 286 55
a 286 181
a 286 56
a 286 57
a 286 58
a 286 59
a 286 60
a 286 99
a 286 183
a 286 61
a 286 62
a 286 63
a 286 185
a 286 425
a 286 171
a 286 300
a 286 172
a 286 301
a 286 302
a 286 305
a 286 427
a 286 144
a 286 40
a 287 317
a 287 217
a 287 346
a 287 134
a 287 17
a 287 18
a 287 20
a 287 21
a 287 128
a 287 164
a 287 246
a 287 166
a 287 360
a 287 255
a 287 25
a 287 479
a 287 480
a 287 256
a 287 26
a 287 362
a 287 260
a 287 263
a 287 264
a 287 265
a 287 363
a 287 407
a 287 27
a 287 269
a 287 408
a 287 110
a 287 273
a 287 366
a 287 30
a 287 275
a 287 167
a 287 276
a 287 168
a 287 277
a 287 325
a 287 409
a 287 327
a 287 328
a 287 368
a 287 279
a 287 369
a 287 411
a 287 280
a 287 281
a 287 330
a 287 415
a 287 32
a 287 33
a 287 34
a 287 284
a 287 416
a 287 418
a 287 170
a 287 393
a 287 465
a 287 285
a 287 372
a 287 286
a 287 119
a 287 6
a 287 318
a 287 148
a 287 64
a 287 65
a 287 66
a 287 84
a 287 138
a 287 10
a 287 102
a 287 220
a 287 104
a 287 228
a 287 13
a 287 141
a 287 105
a 287 232
a 287 154
a 287 106
a 287 107
a 287 14
a 287 133
a 287 16
a 287 159
a 287 236
a 287 240
a 287 22
a 287 247
a 287 253
a 287 460
a 287 261
a 287 406
a 287 266
a 287 271
a 287 274
a 287 283
a 287 288
a 287 289
a 287 290
a 287 467
a 287 419
a 287 35
a 287 291
a 287 292
a 287 111
a 287 295
a 287 296
a 287 297
a 287 425
a 287 171
a 287 38
a 287 172
a 287 307
a 287 394
a 287 429
a 287 112
a 287 175
a 287 135
a 287 177
a 287 179
a 287 136
a 287 41
a 287 113
a 287 42
a 287 43
a 287 44
a 287 45
a 287 46
a 287 114
a 287 47
a 287 48
a 287 49
a 287 115
a 287 50
a 287 51
a 287 52
a 287 53
a 287 54
a 287 55
a 287 181
a 287 56
a 287 57
a 287 58
a 287 59
a 287 60
a 287 99
a 287 183
a 287 61
a 287 62
a 287 63
a 287 185
a 287 331
a 287 373
a 287 420
a 287 422
a 287 468
a 287 423
a 287 294
a 287 36
a 287 37
a 287 298
a 287 302
a 287 303
a 287 306
a 287 427
a 287 174
a 287 428
a 287 308
a 287 473
a 287 309
a 287 40
a 287 436
a 422 317
a 422 186
a 422 187
a 422 188
a 422 189
a 422 332
a 422 190
a 422 191
a 422 192
a 422 193
a 422 194
a 422 195
a 422 196
a 422 333
a 422 197
a 422 198
a 422 199
a 422 200
a 422 334
a 422 201
a 422 202
a 422 203
a 422 204
a 422 206
a 422 207
a 422 208
a 422 209
a 422 339
a 422 340
a 422 148
a 422 341
a 422 214
a 422 345
a 422 217
a 422 220
a 422 402
a 422 17
a 422 97
a 422 21
a 422 128
a 422 356
a 422 255
a 422 265
a 422 323
a 422 324
a 422 407
a 422 27
a 422 269
a 422 110
a 422 167
a 422 330
a 422 284
a 422 285
a 422 372
a 422 373
a 422 119
a 422 64
a 422 65
a 422 66
a 422 84
a 422 138
a 422 10
a 422 102
a 422 151
a 422 397
a 422 390
a 422 349
a 422 378
a 422 104
a 422 222
a 422 225
a 422 381
a 422 12
a 422 13
a 422 141
a 422 142
a 422 105
a 422 232
a 422 154
a 422 106
a 422 107
a 422 14
a 422 133
a 422 134
a 422 16
a 422 159
a 422 96
a 422 20
a 422 236
a 422 240
a 422 242
a 422 22
a 422 127
a 422 164
a 422 246
a 422 251
a 422 253
a 422 254
a 422 360
a 422 25
a 422 256
a 422 460
a 422 362
a 422 257
a 422 263
a 422 264
a 422 406
a 422 266
a 422 363
a 422 461
a 422 271
a 422 273
a 422 274
a 422 366
a 422 30
a 422 275
a 422 169
a 422 368
a 422 279
a 422 281
a 422 282
a 422 371
a 422 283
a 422 415
a 422 32
a 422 34
a 422 287
a 422 288
a 422 289
a 422 290
a 422 35
a 422 292
a 422 111
a 422 297
a 422 470
a 422 171
a 422 38
a 422 307
a 422 427
a 422 394
a 422 174
a 422 429
a 422 112
a 422 175
a 422 135
a 422 179
a 422 136
a 422 309
a 422 40
a 422 41
a 422 113
a 422 42
a 422 43
a 422 44
a 422 46
a 422 114
a 422 47
a 422 48
a 422 49
a 422 115
a 422 50
a 422 51
a 422 52
a 422 53
a 422 54
a 422 55
a 422 181
a 422 56
a 422 57
a 422 58
a 422 59
a 422 60
a 422 99
a 422 183
a 422 61
a 422 396
a 422 62
a 422 63
a 422 185
a 422 468
a 422 423
a 422 294
a 422 299
a 422 300
a 422 172
a 422 301
a 422 305
a 422 308
a 422 434
a 422 435
a 422 311
a 422 182
a 422 312
a 422 436
a 294 317
a 294 186
a 294 187
a 294 188
a 294 189
a 294 332
a 294 190
a 294 191
a 294 192
a 294 193
a 294 194
a 294 195
a 294 196
a 294 333
a 294 197
a 294 198
a 294 199
a 294 200
a 294 334
a 294 201
a 294 202
a 294 335
a 294 204
a 294 206
a 294 207
a 294 209
a 294 339
a 294 340
a 294 148
a 294 395
a 294 342
a 294 438
a 294 210
a 294 212
a 294 213
a 294 343
a 294 214
a 294 215
a 294 345
a 294 217
a 294 346
a 294 439
a 294 348
a 294 15
a 294 21
a 294 128
a 294 263
a 294 406
a 294 265
a 294 267
a 294 27
a 294 269
a 294 408
a 294 462
a 294 271
a 294 110
a 294 273
a 294 275
a 294 167
a 294 276
a 294 168
a 294 277
a 294 325
a 294 409
a 294 326
a 294 328
a 294 279
a 294 414
a 294 280
a 294 281
a 294 283
a 294 34
a 294 284
a 294 416
a 294 170
a 294 285
a 294 372
a 294 286
a 294 288
a 294 289
a 294 290
a 294 331
a 294 419
a 294 468
a 294 35
a 294 292
a 294 111
a 294 424
a 294 293
a 294 119
a 294 147
a 294 137
a 294 6
a 294 318
a 294 149
a 294 64
a 294 65
a 294 66
a 294 84
a 294 138
a 294 10
a 294 102
a 294 150
a 294 151
a 294 397
a 294 477
a 294 378
a 294 139
a 294 220
a 294 386
a 294 446
a 294 104
a 294 222
a 294 225
a 294 228
a 294 12
a 294 13
a 294 447
a 294 448
a 294 398
a 294 400
a 294 141
a 294 142
a 294 105
a 294 232
a 294 154
a 294 155
a 294 106
a 294 157
a 294 158
a 294 107
a 294 14
a 294 133
a 294 134
a 294 16
a 294 159
a 294 160
a 294 17
a 294 96
a 294 235
a 294 20
a 294 236
a 294 237
a 294 108
a 294 240
a 294 22
a 294 127
a 294 161
a 294 162
a 294 163
a 294 164
a 294 247
a 294 165
a 294 251
a 294 253
a 294 322
a 294 255
a 294 25
a 294 256
a 294 26
a 294 460
a 294 362
a 294 257
a 294 260
a 294 261
a 294 264
a 294 266
a 294 323
a 294 363
a 294 461
a 294 129
a 294 272
a 294 28
a 294 29
a 294 274
a 294 366
a 294 30
a 294 367
a 294 278
a 294 368
a 294 329
a 294 384
a 294 282
a 294 371
a 294 32
a 294 418
a 294 287
a 294 467
a 294 422
a 294 291
a 294 295
a 294 296
a 294 297
a 294 36
a 294 425
a 294 37
a 294 171
a 294 299
a 294 38
a 294 300
a 294 172
a 294 301
a 294 306
a 294 307
a 294 427
a 294 144
a 294 394
a 294 174
a 294 428
a 294 429
a 294 112
a 294 175
a 294 375
a 294 176
a 294 431
a 294 135
a 294 177
a 294 178
a 294 179
a 294 136
a 294 39
a 294 309
a 294 40
a 294 41
a 294 113
a 294 42
a 294 43
a 294 44
a 294 45
a 294 180
a 294 46
a 294 114
a 294 47
a 294 48
a 294 49
a 294 115
a 294 50
a 294 51
a 294 52
a 294 53
a 294 54
a 294 55
a 294 181
a 294 56
a 294 57
a 294 58
a 294 59
a 294 60
a 294 311
a 294 99
a 294 183
a 294 61
a 294 396
a 294 62
a 294 184
a 294 63
a 294 185
a 294 302
a 294 303
a 294 304
a 294 472
a 294 436
a 228 7
a 228 69
a 228 70
a 228 72
a 228 73
a 228 10
a 228 95
a 228 137
a 228 6
a 228 318
a 228 148
a 228 221
a 228 104
a 228 222
a 228 379
a 228 225
a 228 381
a 228 12
a 228 13
a 228 142
a 228 107
a 228 16
a 228 96
a 228 236
a 228 240
a 228 21
a 228 22
a 228 251
a 228 253
a 228 255
a 228 25
a 228 110
a 228 29
a 228 273
a 228 30
a 228 167
a 228 413
a 228 34
a 228 394
a 228 39
a 228 41
a 228 113
a 228 42
a 228 43
a 228 44
a 228 46
a 228 114
a 228 47
a 228 49
a 228 115
a 228 50
a 228 51
a 228 52
a 228 53
a 228 54
a 228 55
a 228 181
a 228 56
a 228 57
a 228 58
a 228 59
a 228 60
a 228 61
a 228 62
a 228 63
a 228 185
a 228 229
a 228 449
a 228 399
a 228 400
a 228 401
a 228 402
a 228 451
a 228 140
a 228 141
a 228 233
a 228 154
a 228 155
a 228 134
a 228 17
a 228 319
a 228 455
a 228 127
a 228 128
a 228 161
a 228 164
a 228 109
a 228 244
a 228 245
a 228 246
a 228 355
a 228 248
a 228 249
a 228 250
a 228 166
a 228 359
a 228 252
a 228 24
a 228 254
a 228 360
a 228 361
a 228 479
a 228 480
a 228 256
a 228 26
a 228 362
a 228 257
a 228 260
a 228 263
a 228 264
a 228 265
a 228 129
a 228 364
a 228 407
a 228 267
a 228 27
a 228 269
a 228 270
a 228 271
a 228 272
a 228 130
a 228 367
a 228 168
a 228 31
a 228 277
a 228 409
a 228 328
a 228 368
a 228 279
a 228 384
a 228 414
a 228 280
a 228 281
a 228 282
a 228 330
a 228 371
a 228 283
a 228 284
a 228 285
a 228 287
a 228 288
a 228 289
a 228 290
a 228 331
a 228 467
a 228 419
a 228 421
a 228 292
a 228 111
a 228 293
a 228 294
a 228 297
a 228 37
a 228 426
a 228 38
a 228 172
a 228 301
a 228 302
a 228 304
a 228 135
a 228 376
a 228 180
a 233 7
a 233 186
a 233 187
a 233 188
a 233 189
a 233 332
a 233 190
a 233 191
a 233 192
a 233 193
a 233 194
a 233 195
a 233 196
a 233 333
a 233 197
a 233 198
a 233 199
a 233 200
a 233 334
a 233 201
a 233 202
a 233 203
a 233 206
a 233 337
a 233 207
a 233 208
a 233 209
a 233 340
a 233 148
a 233 341
a 233 9
a 233 395
a 233 342
a 233 438
a 233 212
a 233 213
a 233 214
a 233 215
a 233 345
a 233 347
a 233 68
a 233 74
a 233 85
a 233 95
a 233 377
a 233 226
a 233 227
a 233 12
a 233 6
a 233 318
a 233 80
a 233 83
a 233 10
a 233 102
a 233 151
a 233 477
a 233 221
a 233 104
a 233 222
a 233 225
a 233 228
a 233 381
a 233 140
a 233 107
a 233 16
a 233 17
a 233 96
a 233 20
a 233 236
a 233 237
a 233 320
a 233 240
a 233 21
a 233 128
a 233 166
a 233 251
a 233 253
a 233 24
a 233 255
a 233 110
a 233 28
a 233 30
a 233 167
a 233 410
a 233 279
a 233 414
a 233 281
a 233 32
a 233 34
a 233 41
a 233 113
a 233 42
a 233 43
a 233 44
a 233 46
a 233 114
a 233 47
a 233 48
a 233 49
a 233 50
a 233 51
a 233 52
a 233 53
a 233 54
a 233 55
a 233 181
a 233 56
a 233 57
a 233 58
a 233 59
a 233 60
a 233 99
a 233 183
a 233 61
a 233 62
a 233 184
a 233 63
a 233 185
a 233 98
a 233 241
a 233 242
a 233 127
a 233 163
a 233 249
a 233 252
a 233 254
a 233 267
a 233 268
a 233 27
a 233 269
a 233 408
a 233 462
a 233 270
a 233 130
a 233 275
a 233 280
a 233 285
a 233 372
a 233 289
a 233 373
a 233 420
a 233 37
a 233 298
a 233 38
a 233 301
a 233 303
a 233 472
a 233 305
a 233 173
a 233 376
a 319 7
a 319 8
a 319 186
a 319 188
a 319 332
a 319 196
a 319 197
a 319 205
a 319 340
a 319 148
a 319 346
a 319 348
a 319 64
a 319 68
a 319 70
a 319 73
a 319 78
a 319 80
a 319 81
a 319 86
a 319 126
a 319 101
a 319 95
a 319 219
a 319 221
a 319 104
a 319 225
a 319 140
a 319 141
a 319 142
a 319 107
a 319 484
a 319 17
a 319 18
a 319 19
a 319 137
a 319 318
a 319 345
a 319 10
a 319 151
a 319 378
a 319 228
a 319 12
a 319 154
a 319 155
a 319 16
a 319 96
a 319 20
a 319 236
a 319 237
a 319 320
a 319 21
a 319 127
a 319 128
a 319 164
a 319 166
a 319 253
a 319 255
a 319 25
a 319 460
a 319 258
a 319 129
a 319 324
a 319 30
a 319 275
a 319 167
a 319 414
a 319 281
a 319 32
a 319 34
a 319 307
a 319 394
a 319 429
a 319 41
a 319 113
a 319 42
a 319 43
a 319 44
a 319 46
a 319 114
a 319 47
a 319 48
a 319 49
a 319 50
a 319 51
a 319 52
a 319 53
a 319 54
a 319 55
a 319 181
a 319 56
a 319 57
a 319 58
a 319 59
a 319 60
a 319 183
a 319 61
a 319 62
a 319 184
a 319 63
a 319 185
a 319 352
a 319 108
a 319 98
a 319 143
a 319 240
a 319 241
a 319 242
a 319 485
a 319 392
a 319 456
a 319 245
a 319 248
a 319 249
a 319 250
a 319 321
a 319 24
a 319 360
a 319 256
a 319 257
a 319 267
a 319 27
a 319 272
a 319 274
a 319 276
a 319 326
a 319 279
a 319 412
a 319 370
a 319 285
a 319 372
a 319 289
a 319 299
a 319 38
a 319 300
a 319 302
a 319 112
a 319 178
a 319 40
a 320 7
a 320 8
a 320 72
a 320 76
a 320 77
a 320 80
a 320 84
a 320 88
a 320 89
a 320 90
a 320 91
a 320 101
a 320 92
a 320 93
a 320 95
a 320 151
a 320 397
a 320 218
a 320 390
a 320 377
a 320 442
a 320 139
a 320 103
a 320 443
a 320 444
a 320 482
a 320 219
a 320 220
a 320 350
a 320 391
a 320 140
a 320 141
a 320 142
a 320 232
a 320 233
a 320 17
a 320 18
a 320 19
a 320 319
a 320 96
a 320 20
a 320 236
a 320 237
a 320 238
a 320 239
a 320 97
a 320 108
a 320 98
a 320 132
a 320 137
a 320 314
a 320 316
a 320 318
a 320 317
a 320 148
a 320 64
a 320 67
a 320 74
a 320 10
a 320 102
a 320 221
a 320 104
a 320 154
a 320 155
a 320 106
a 320 107
a 320 134
a 320 16
a 320 143
a 320 240
a 320 21
a 320 127
a 320 128
a 320 164
a 320 109
a 320 166
a 320 255
a 320 362
a 320 258
a 320 259
a 320 261
a 320 406
a 320 129
a 320 324
a 320 275
a 320 367
a 320 167
a 320 280
a 320 281
a 320 32
a 320 34
a 320 285
a 320 467
a 320 111
a 320 307
a 320 394
a 320 41
a 320 113
a 320 42
a 320 43
a 320 44
a 320 45
a 320 46
a 320 114
a 320 47
a 320 48
a 320 49
a 320 115
a 320 50
a 320 51
a 320 52
a 320 53
a 320 54
a 320 55
a 320 181
a 320 56
a 320 57
a 320 58
a 320 59
a 320 60
a 320 99
a 320 183
a 320 61
a 320 62
a 320 184
a 320 63
a 320 185
a 320 241
a 320 242
a 320 392
a 320 456
a 320 162
a 320 163
a 320 248
a 320 249
a 320 250
a 320 359
a 320 253
a 320 24
a 320 254
a 320 112
a 320 39
a 241 7
a 241 186
a 241 187
a 241 188
a 241 189
a 241 332
a 241 190
a 241 191
a 241 192
a 241 193
a 241 194
a 241 195
a 241 196
a 241 333
a 241 197
a 241 198
a 241 199
a 241 200
a 241 334
a 241 201
a 241 202
a 241 335
a 241 336
a 241 203
a 241 204
a 241 205
a 241 206
a 241 337
a 241 207
a 241 208
a 241 209
a 241 339
a 241 340
a 241 148
a 241 341
a 241 9
a 241 395
a 241 342
a 241 438
a 241 210
a 241 211
a 241 212
a 241 213
a 241 343
a 241 214
a 241 215
a 241 344
a 241 345
a 241 21
a 241 6
a 241 318
a 241 317
a 241 8
a 241 10
a 241 102
a 241 441
a 241 104
a 241 12
a 241 233
a 241 154
a 241 155
a 241 106
a 241 107
a 241 133
a 241 16
a 241 17
a 241 18
a 241 319
a 241 235
a 241 20
a 241 320
a 241 240
a 241 22
a 241 128
a 241 23
a 241 164
a 241 244
a 241 248
a 241 250
a 241 321
a 241 253
a 241 24
a 241 255
a 241 25
a 241 256
a 241 265
a 241 129
a 241 324
a 241 267
a 241 271
a 241 28
a 241 30
a 241 167
a 241 168
a 241 277
a 241 325
a 241 326
a 241 327
a 241 328
a 241 279
a 241 282
a 241 283
a 241 32
a 241 34
a 241 289
a 241 38
a 241 394
a 241 429
a 241 112
a 241 136
a 241 40
a 241 41
a 241 113
a 241 42
a 241 43
a 241 44
a 241 45
a 241 46
a 241 114
a 241 47
a 241 48
a 241 49
a 241 115
a 241 50
a 241 51
a 241 52
a 241 53
a 241 54
a 241 55
a 241 181
a 241 56
a 241 57
a 241 58
a 241 59
a 241 60
a 241 99
a 241 183
a 241 61
a 241 62
a 241 184
a 241 63
a 241 185
a 241 242
a 241 245
a 241 354
a 241 249
a 250 7
a 250 186
a 250 187
a 250 188
a 250 189
a 250 332
a 250 190
a 250 191
a 250 192
a 250 193
a 250 194
a 250 195
a 250 196
a 250 333
a 250 197
a 250 198
a 250 199
a 250 200
a 250 334
a 250 201
a 250 202
a 250 335
a 250 336
a 250 203
a 250 204
a 250 205
a 250 206
a 250 337
a 250 207
a 250 208
a 250 209
a 250 339
a 250 340
a 250 148
a 250 341
a 250 9
a 250 395
a 250 342
a 250 438
a 250 210
a 250 211
a 250 212
a 250 213
a 250 343
a 250 214
a 250 215
a 250 344
a 250 216
a 250 345
a 250 240
a 250 241
a 250 248
a 250 249
a 250 119
a 250 6
a 250 318
a 250 149
a 250 64
a 250 65
a 250 66
a 250 84
a 250 138
a 250 10
a 250 102
a 250 150
a 250 220
a 250 386
a 250 104
a 250 228
a 250 12
a 250 105
a 250 232
a 250 154
a 250 155
a 250 106
a 250 158
a 250 107
a 250 14
a 250 15
a 250 133
a 250 134
a 250 16
a 250 159
a 250 17
a 250 319
a 250 235
a 250 20
a 250 320
a 250 21
a 250 22
a 250 128
a 250 23
a 250 161
a 250 162
a 250 164
a 250 244
a 250 251
a 250 253
a 250 24
a 250 255
a 250 256
a 250 460
a 250 324
a 250 28
a 250 30
a 250 167
a 250 168
a 250 277
a 250 325
a 250 326
a 250 327
a 250 279
a 250 282
a 250 283
a 250 34
a 250 35
a 250 292
a 250 111
a 250 36
a 250 37
a 250 38
a 250 394
a 250 174
a 250 429
a 250 112
a 250 175
a 250 176
a 250 135
a 250 177
a 250 179
a 250 136
a 250 39
a 250 40
a 250 41
a 250 113
a 250 42
a 250 43
a 250 44
a 250 45
a 250 46
a 250 114
a 250 47
a 250 48
a 250 49
a 250 115
a 250 50
a 250 51
a 250 52
a 250 53
a 250 54
a 250 55
a 250 181
a 250 56
a 250 57
a 250 58
a 250 59
a 250 60
a 250 99
a 250 183
a 250 61
a 250 62
a 250 184
a 250 63
a 250 185
a 250 166
a 250 359
a 250 321
a 250 254
a 250 275
a 250 368
a 250 291
a 321 7
a 321 186
a 321 187
a 321 188
a 321 189
a 321 332
a 321 190
a 321 191
a 321 192
a 321 193
a 321 194
a 321 195
a 321 196
a 321 333
a 321 197
a 321 198
a 321 199
a 321 200
a 321 201
a 321 202
a 321 203
a 321 204
a 321 205
a 321 206
a 321 207
a 321 209
a 321 340
a 321 148
a 321 210
a 321 212
a 321 213
a 321 214
a 321 400
a 321 241
a 321 242
a 321 128
a 321 248
a 321 249
a 321 318
a 321 10
a 321 102
a 321 104
a 321 142
a 321 155
a 321 106
a 321 16
a 321 17
a 321 319
a 321 240
a 321 21
a 321 22
a 321 164
a 321 244
a 321 250
a 321 251
a 321 253
a 321 322
a 321 255
a 321 256
a 321 460
a 321 28
a 321 30
a 321 325
a 321 279
a 321 32
a 321 34
a 321 292
a 321 394
a 321 41
a 321 113
a 321 42
a 321 43
a 321 44
a 321 46
a 321 114
a 321 47
a 321 48
a 321 49
a 321 115
a 321 50
a 321 51
a 321 52
a 321 53
a 321 54
a 321 55
a 321 181
a 321 56
a 321 57
a 321 58
a 321 59
a 321 60
a 321 99
a 321 61
a 321 62
a 321 63
a 321 135
a 251 7
a 251 186
a 251 187
a 251 188
a 251 189
a 251 332
a 251 193
a 251 194
a 251 196
a 251 197
a 251 198
a 251 199
a 251 205
a 251 217
a 251 346
a 251 439
a 251 149
a 251 347
a 251 348
a 251 95
a 251 221
a 251 104
a 251 222
a 251 379
a 251 223
a 251 224
a 251 225
a 251 226
a 251 227
a 251 228
a 251 381
a 251 12
a 251 13
a 251 229
a 251 448
a 251 230
a 251 398
a 251 231
a 251 449
a 251 399
a 251 400
a 251 401
a 251 402
a 251 451
a 251 233
a 251 154
a 251 158
a 251 134
a 251 484
a 251 453
a 251 17
a 251 20
a 251 236
a 251 108
a 251 98
a 251 143
a 251 353
a 251 127
a 251 128
a 251 164
a 251 109
a 251 244
a 251 246
a 251 356
a 251 248
a 251 249
a 251 250
a 251 166
a 251 321
a 251 6
a 251 316
a 251 318
a 251 148
a 251 80
a 251 84
a 251 10
a 251 101
a 251 102
a 251 151
a 251 397
a 251 139
a 251 103
a 251 220
a 251 141
a 251 142
a 251 105
a 251 232
a 251 155
a 251 106
a 251 107
a 251 133
a 251 16
a 251 404
a 251 96
a 251 352
a 251 239
a 251 240
a 251 21
a 251 22
a 251 23
a 251 24
a 251 255
a 251 256
a 251 26
a 251 460
a 251 362
a 251 257
a 251 260
a 251 261
a 251 263
a 251 264
a 251 406
a 251 266
a 251 323
a 251 27
a 251 271
a 251 28
a 251 274
a 251 366
a 251 30
a 251 275
a 251 367
a 251 167
a 251 168
a 251 326
a 251 278
a 251 368
a 251 279
a 251 414
a 251 280
a 251 281
a 251 282
a 251 330
a 251 283
a 251 32
a 251 34
a 251 288
a 251 289
a 251 290
a 251 467
a 251 111
a 251 297
a 251 38
a 251 394
a 251 112
a 251 375
a 251 135
a 251 41
a 251 113
a 251 42
a 251 43
a 251 44
a 251 46
a 251 114
a 251 47
a 251 48
a 251 49
a 251 115
a 251 50
a 251 51
a 251 52
a 251 53
a 251 54
a 251 55
a 251 181
a 251 56
a 251 57
a 251 58
a 251 59
a 251 60
a 251 99
a 251 183
a 251 61
a 251 62
a 251 63
a 251 185
a 251 252
a 251 254
a 251 360
a 251 322
a 251 361
a 251 25
a 251 479
a 251 265
a 251 363
a 251 129
a 251 364
a 251 365
a 251 407
a 251 267
a 251 268
a 251 269
a 251 408
a 251 270
a 251 272
a 251 130
a 251 110
a 251 29
a 251 273
a 251 464
a 251 276
a 251 31
a 251 169
a 251 277
a 251 325
a 251 409
a 251 410
a 251 327
a 251 328
a 251 329
a 251 369
a 251 411
a 251 384
a 251 413
a 251 370
a 251 371
a 251 33
a 251 170
a 251 465
a 251 285
a 251 466
a 251 372
a 251 331
a 251 373
a 251 420
a 251 421
a 251 422
a 251 423
a 251 35
a 251 291
a 251 292
a 251 293
a 251 294
a 251 295
a 251 296
a 251 425
a 251 37
a 251 171
a 251 298
a 251 426
a 251 299
a 251 300
a 251 302
a 251 303
a 251 304
a 251 305
a 251 306
a 251 307
a 251 427
a 251 144
a 251 374
a 251 428
a 251 429
a 251 175
a 251 176
a 251 430
a 251 308
a 251 309
a 251 40
a 322 7
a 322 192
a 322 378
a 322 220
a 322 154
a 322 158
a 322 17
a 322 352
a 322 236
a 322 143
a 322 127
a 322 128
a 322 109
a 322 248
a 322 359
a 322 321
a 322 252
a 322 253
a 322 24
a 322 254
a 322 316
a 322 8
a 322 148
a 322 10
a 322 90
a 322 151
a 322 397
a 322 104
a 322 141
a 322 155
a 322 107
a 322 16
a 322 96
a 322 240
a 322 21
a 322 164
a 322 251
a 322 255
a 322 460
a 322 260
a 322 129
a 322 324
a 322 167
a 322 279
a 322 32
a 322 34
a 322 394
a 322 41
a 322 113
a 322 42
a 322 44
a 322 46
a 322 114
a 322 47
a 322 48
a 322 49
a 322 50
a 322 52
a 322 53
a 322 54
a 322 55
a 322 181
a 322 56
a 322 57
a 322 58
a 322 59
a 322 60
a 322 61
a 322 62
a 322 63
a 322 185
a 322 361
a 322 256
a 322 362
a 322 261
a 322 263
a 322 264
a 322 265
a 322 266
a 322 363
a 322 27
a 322 29
a 322 30
a 322 276
a 322 168
a 322 169
a 322 329
a 322 369
a 322 280
a 322 281
a 322 283
a 322 284
a 322 170
a 322 289
a 322 419
a 322 291
a 322 292
a 322 111
a 322 294
a 322 295
a 322 296
a 322 297
a 322 425
a 322 299
a 322 38
a 322 300
a 322 301
a 322 302
a 322 428
a 322 175
a 322 375
a 322 176
a 322 430
a 322 177
a 322 178
a 322 179
a 322 136
a 260 7
a 260 348
a 260 223
a 260 227
a 260 398
a 260 399
a 260 402
a 260 450
a 260 154
a 260 107
a 260 134
a 260 17
a 260 18
a 260 19
a 260 20
a 260 236
a 260 108
a 260 240
a 260 21
a 260 128
a 260 164
a 260 246
a 260 247
a 260 166
a 260 251
a 260 360
a 260 322
a 260 255
a 260 361
a 260 25
a 260 256
a 260 26
a 260 460
a 260 362
a 260 257
a 260 258
a 260 259
a 260 6
a 260 314
a 260 316
a 260 318
a 260 148
a 260 10
a 260 102
a 260 220
a 260 386
a 260 104
a 260 228
a 260 13
a 260 232
a 260 106
a 260 16
a 260 22
a 260 127
a 260 23
a 260 163
a 260 253
a 260 261
a 260 262
a 260 263
a 260 264
a 260 265
a 260 271
a 260 110
a 260 28
a 260 29
a 260 273
a 260 366
a 260 30
a 260 275
a 260 167
a 260 328
a 260 279
a 260 281
a 260 282
a 260 283
a 260 32
a 260 34
a 260 287
a 260 288
a 260 290
a 260 467
a 260 35
a 260 292
a 260 172
a 260 394
a 260 429
a 260 112
a 260 39
a 260 41
a 260 113
a 260 42
a 260 43
a 260 44
a 260 46
a 260 114
a 260 47
a 260 48
a 260 49
a 260 115
a 260 50
a 260 51
a 260 52
a 260 53
a 260 54
a 260 55
a 260 181
a 260 56
a 260 57
a 260 58
a 260 59
a 260 60
a 260 99
a 260 183
a 260 61
a 260 62
a 260 184
a 260 63
a 260 185
a 260 406
a 260 266
a 260 323
a 260 363
a 260 461
a 260 364
a 260 365
a 260 407
a 260 267
a 260 268
a 260 27
a 260 269
a 260 408
a 260 462
a 260 270
a 260 272
a 260 274
a 260 367
a 260 276
a 260 168
a 260 31
a 260 277
a 260 325
a 260 326
a 260 278
a 260 368
a 260 329
a 260 411
a 260 384
a 260 414
a 260 280
a 260 330
a 260 371
a 260 415
a 260 33
a 260 284
a 260 285
a 260 466
a 260 372
a 260 289
a 260 420
a 260 291
a 260 293
a 260 294
a 260 297
a 260 37
a 260 171
a 260 298
a 260 426
a 260 299
a 260 38
a 260 302
a 260 303
a 260 304
a 260 472
a 260 305
a 260 173
a 260 307
a 260 433
a 263 7
a 263 8
a 263 186
a 263 187
a 263 188
a 263 189
a 263 332
a 263 190
a 263 191
a 263 192
a 263 193
a 263 194
a 263 195
a 263 196
a 263 333
a 263 197
a 263 198
a 263 199
a 263 200
a 263 334
a 263 201
a 263 202
a 263 336
a 263 203
a 263 204
a 263 206
a 263 337
a 263 207
a 263 208
a 263 209
a 263 339
a 263 340
a 263 148
a 263 341
a 263 9
a 263 395
a 263 342
a 263 438
a 263 212
a 263 213
a 263 214
a 263 215
a 263 345
a 263 217
a 263 346
a 263 439
a 263 149
a 263 347
a 263 348
a 263 378
a 263 220
a 263 446
a 263 391
a 263 221
a 263 226
a 263 227
a 263 12
a 263 447
a 263 398
a 263 399
a 263 402
a 263 154
a 263 107
a 263 134
a 263 484
a 263 160
a 263 453
a 263 454
a 263 17
a 263 235
a 263 352
a 263 20
a 263 127
a 263 128
a 263 243
a 263 457
a 263 459
a 263 162
a 263 164
a 263 245
a 263 356
a 263 247
a 263 251
a 263 255
a 263 256
a 263 26
a 263 362
a 263 257
a 263 260
a 263 261
a 263 6
a 263 318
a 263 84
a 263 10
a 263 102
a 263 397
a 263 218
a 263 386
a 263 104
a 263 222
a 263 228
a 263 13
a 263 141
a 263 105
a 263 232
a 263 106
a 263 158
a 263 14
a 263 133
a 263 16
a 263 236
a 263 237
a 263 240
a 263 21
a 263 22
a 263 23
a 263 163
a 263 252
a 263 253
a 263 322
a 263 361
a 263 25
a 263 460
a 263 258
a 263 259
a 263 262
a 263 264
a 263 406
a 263 265
a 263 323
a 263 461
a 263 269
a 263 271
a 263 110
a 263 28
a 263 29
a 263 273
a 263 274
a 263 366
a 263 167
a 263 276
a 263 328
a 263 279
a 263 281
a 263 282
a 263 283
a 263 34
a 263 286
a 263 287
a 263 288
a 263 289
a 263 290
a 263 467
a 263 419
a 263 292
a 263 111
a 263 293
a 263 294
a 263 296
a 263 297
a 263 394
a 263 429
a 263 112
a 263 39
a 263 41
a 263 113
a 263 42
a 263 43
a 263 44
a 263 46
a 263 114
a 263 47
a 263 48
a 263 49
a 263 115
a 263 50
a 263 51
a 263 52
a 263 53
a 263 54
a 263 55
a 263 181
a 263 56
a 263 57
a 263 58
a 263 59
a 263 60
a 263 99
a 263 183
a 263 61
a 263 62
a 263 184
a 263 63
a 263 185
a 263 324
a 263 364
a 263 365
a 263 407
a 263 267
a 263 268
a 263 27
a 263 408
a 263 462
a 263 270
a 263 272
a 263 130
a 263 463
a 263 30
a 263 464
a 263 275
a 263 367
a 263 168
a 263 31
a 263 169
a 263 277
a 263 325
a 263 409
a 263 410
a 263 326
a 263 327
a 263 278
a 263 368
a 263 329
a 263 369
a 263 411
a 263 384
a 263 412
a 263 414
a 263 370
a 263 280
a 263 330
a 263 415
a 263 32
a 263 33
a 263 284
a 263 416
a 263 418
a 263 170
a 263 393
a 263 465
a 263 285
a 263 466
a 263 372
a 263 331
a 263 373
a 263 420
a 263 421
a 263 422
a 263 468
a 263 469
a 263 423
a 263 35
a 263 291
a 263 295
a 263 425
a 263 37
a 263 171
a 263 298
a 263 426
a 263 299
a 263 38
a 263 300
a 263 172
a 263 301
a 263 302
a 263 303
a 263 304
a 263 471
a 263 472
a 263 305
a 263 173
a 263 306
a 263 307
a 263 427
a 263 144
a 263 174
a 263 428
a 263 175
a 263 375
a 263 176
a 263 430
a 263 431
a 263 308
a 263 135
a 263 177
a 263 178
a 263 179
a 263 136
a 263 474
a 263 475
a 263 432
a 263 433
a 263 309
a 263 40
a 323 7
a 323 8
a 323 223
a 323 402
a 323 107
a 323 17
a 323 20
a 323 128
a 323 245
a 323 355
a 323 356
a 323 359
a 323 251
a 323 255
a 323 256
a 323 26
a 323 263
a 323 264
a 323 265
a 323 266
a 323 314
a 323 148
a 323 80
a 323 84
a 323 10
a 323 102
a 323 104
a 323 232
a 323 106
a 323 16
a 323 21
a 323 164
a 323 253
a 323 361
a 323 25
a 323 460
a 323 257
a 323 259
a 323 260
a 323 261
a 323 271
a 323 272
a 323 110
a 323 273
a 323 30
a 323 275
a 323 167
a 323 168
a 323 279
a 323 329
a 323 280
a 323 282
a 323 371
a 323 283
a 323 32
a 323 34
a 323 331
a 323 467
a 323 373
a 323 422
a 323 292
a 323 111
a 323 38
a 323 427
a 323 394
a 323 174
a 323 41
a 323 113
a 323 42
a 323 44
a 323 46
a 323 114
a 323 47
a 323 48
a 323 49
a 323 115
a 323 50
a 323 51
a 323 52
a 323 53
a 323 54
a 323 55
a 323 181
a 323 56
a 323 57
a 323 58
a 323 59
a 323 60
a 323 99
a 323 61
a 323 62
a 323 63
a 323 185
a 323 364
a 323 365
a 323 407
a 323 267
a 323 268
a 323 27
a 323 269
a 323 408
a 323 462
a 323 270
a 323 28
a 323 29
a 323 276
a 323 31
a 323 169
a 323 277
a 323 325
a 323 409
a 323 410
a 323 326
a 323 327
a 323 328
a 323 278
a 323 368
a 323 369
a 323 411
a 323 384
a 323 413
a 323 281
a 323 330
a 323 33
a 323 284
a 323 393
a 323 465
a 323 285
a 323 466
a 323 372
a 323 286
a 323 288
a 323 289
a 323 290
a 323 420
a 323 421
a 323 423
a 323 291
a 323 294
a 323 295
a 323 296
a 323 297
a 323 37
a 323 171
a 323 298
a 323 299
a 323 300
a 323 172
a 323 301
a 323 302
a 323 303
a 323 471
a 323 173
a 323 306
a 323 307
a 323 144
a 323 428
a 323 112
a 323 176
a 323 431
a 323 40
a 324 7
a 324 64
a 324 65
a 324 67
a 324 124
a 324 68
a 324 70
a 324 72
a 324 383
a 324 73
a 324 78
a 324 80
a 324 83
a 324 84
a 324 85
a 324 88
a 324 89
a 324 90
a 324 91
a 324 101
a 324 93
a 324 95
a 324 399
a 324 107
a 324 484
a 324 17
a 324 18
a 324 351
a 324 19
a 324 319
a 324 96
a 324 235
a 324 352
a 324 20
a 324 236
a 324 237
a 324 97
a 324 108
a 324 98
a 324 320
a 324 143
a 324 240
a 324 21
a 324 241
a 324 242
a 324 128
a 324 246
a 324 250
a 324 252
a 324 253
a 324 24
a 324 360
a 324 322
a 324 255
a 324 256
a 324 26
a 324 362
a 324 317
a 324 148
a 324 10
a 324 446
a 324 141
a 324 142
a 324 134
a 324 16
a 324 22
a 324 127
a 324 460
a 324 258
a 324 263
a 324 264
a 324 265
a 324 363
a 324 461
a 324 267
a 324 271
a 324 272
a 324 110
a 324 273
a 324 274
a 324 366
a 324 30
a 324 275
a 324 167
a 324 368
a 324 279
a 324 329
a 324 282
a 324 32
a 324 34
a 324 288
a 324 289
a 324 422
a 324 292
a 324 38
a 324 427
a 324 394
a 324 41
a 324 113
a 324 42
a 324 43
a 324 44
a 324 46
a 324 114
a 324 47
a 324 48
a 324 49
a 324 115
a 324 50
a 324 51
a 324 52
a 324 53
a 324 54
a 324 55
a 324 181
a 324 56
a 324 57
a 324 58
a 324 59
a 324 60
a 324 61
a 324 62
a 324 63
a 324 185
a 324 326
a 324 384
a 324 370
a 324 372
a 324 171
a 324 112
a 328 7
a 328 8
a 328 221
a 328 104
a 328 225
a 328 141
a 328 17
a 328 96
a 328 21
a 328 241
a 328 252
a 328 24
a 328 255
a 328 25
a 328 256
a 328 26
a 328 260
a 328 263
a 328 264
a 328 406
a 328 265
a 328 268
a 328 269
a 328 270
a 328 271
a 328 273
a 328 30
a 328 367
a 328 167
a 328 31
a 328 277
a 328 326
a 328 327
a 328 148
a 328 84
a 328 10
a 328 102
a 328 220
a 328 228
a 328 12
a 328 13
a 328 400
a 328 105
a 328 232
a 328 106
a 328 107
a 328 14
a 328 133
a 328 16
a 328 240
a 328 242
a 328 22
a 328 127
a 328 128
a 328 23
a 328 251
a 328 253
a 328 460
a 328 259
a 328 266
a 328 323
a 328 363
a 328 267
a 328 27
a 328 272
a 328 110
a 328 464
a 328 275
a 328 168
a 328 368
a 328 279
a 328 329
a 328 281
a 328 282
a 328 371
a 328 283
a 328 32
a 328 33
a 328 34
a 328 285
a 328 287
a 328 288
a 328 289
a 328 290
a 328 419
a 328 111
a 328 294
a 328 36
a 328 37
a 328 299
a 328 38
a 328 304
a 328 394
a 328 112
a 328 135
a 328 309
a 328 41
a 328 113
a 328 42
a 328 43
a 328 44
a 328 46
a 328 114
a 328 47
a 328 48
a 328 49
a 328 115
a 328 50
a 328 51
a 328 52
a 328 53
a 328 54
a 328 55
a 328 181
a 328 56
a 328 57
a 328 58
a 328 59
a 328 60
a 328 99
a 328 183
a 328 61
a 328 62
a 328 63
a 328 185
a 328 297
a 328 298
a 328 426
a 328 302
a 328 305
a 328 173
a 328 376
a 288 7
a 288 8
a 288 186
a 288 187
a 288 188
a 288 189
a 288 332
a 288 190
a 288 191
a 288 192
a 288 193
a 288 194
a 288 195
a 288 196
a 288 333
a 288 197
a 288 198
a 288 199
a 288 200
a 288 334
a 288 201
a 288 202
a 288 335
a 288 336
a 288 203
a 288 204
a 288 205
a 288 206
a 288 337
a 288 207
a 288 208
a 288 209
a 288 339
a 288 340
a 288 148
a 288 341
a 288 9
a 288 395
a 288 342
a 288 438
a 288 210
a 288 211
a 288 212
a 288 213
a 288 343
a 288 214
a 288 215
a 288 216
a 288 345
a 288 346
a 288 402
a 288 17
a 288 18
a 288 98
a 288 128
a 288 251
a 288 255
a 288 480
a 288 256
a 288 26
a 288 362
a 288 260
a 288 263
a 288 264
a 288 265
a 288 324
a 288 407
a 288 267
a 288 268
a 288 27
a 288 269
a 288 408
a 288 270
a 288 110
a 288 28
a 288 29
a 288 366
a 288 30
a 288 275
a 288 167
a 288 276
a 288 168
a 288 31
a 288 169
a 288 277
a 288 325
a 288 409
a 288 410
a 288 326
a 288 327
a 288 328
a 288 278
a 288 368
a 288 279
a 288 329
a 288 369
a 288 411
a 288 384
a 288 412
a 288 413
a 288 414
a 288 370
a 288 280
a 288 281
a 288 330
a 288 283
a 288 415
a 288 32
a 288 34
a 288 284
a 288 416
a 288 418
a 288 170
a 288 393
a 288 285
a 288 372
a 288 286
a 288 287
a 288 119
a 288 6
a 288 318
a 288 64
a 288 65
a 288 66
a 288 84
a 288 138
a 288 10
a 288 102
a 288 150
a 288 220
a 288 104
a 288 228
a 288 13
a 288 141
a 288 105
a 288 232
a 288 106
a 288 158
a 288 107
a 288 14
a 288 15
a 288 133
a 288 134
a 288 16
a 288 159
a 288 20
a 288 236
a 288 240
a 288 21
a 288 22
a 288 127
a 288 161
a 288 162
a 288 164
a 288 247
a 288 253
a 288 460
a 288 257
a 288 259
a 288 261
a 288 406
a 288 266
a 288 323
a 288 363
a 288 461
a 288 271
a 288 274
a 288 282
a 288 289
a 288 290
a 288 419
a 288 292
a 288 111
a 288 293
a 288 294
a 288 295
a 288 296
a 288 297
a 288 171
a 288 38
a 288 301
a 288 307
a 288 394
a 288 174
a 288 429
a 288 112
a 288 175
a 288 176
a 288 135
a 288 177
a 288 179
a 288 136
a 288 309
a 288 41
a 288 113
a 288 42
a 288 43
a 288 44
a 288 46
a 288 114
a 288 47
a 288 48
a 288 49
a 288 115
a 288 50
a 288 51
a 288 52
a 288 53
a 288 54
a 288 55
a 288 181
a 288 56
a 288 57
a 288 58
a 288 59
a 288 60
a 288 99
a 288 183
a 288 61
a 288 62
a 288 184
a 288 63
a 288 185
a 288 373
a 288 420
a 288 421
a 288 422
a 288 468
a 288 469
a 288 423
a 288 291
a 288 37
a 288 298
a 288 299
a 288 172
a 288 302
a 288 304
a 288 306
a 288 427
a 288 428
a 288 40
a 288 45
a 290 7
a 290 346
a 290 439
a 290 447
a 290 398
a 290 402
a 290 17
a 290 20
a 290 128
a 290 251
a 290 255
a 290 25
a 290 479
a 290 256
a 290 26
a 290 362
a 290 257
a 290 260
a 290 261
a 290 263
a 290 264
a 290 406
a 290 265
a 290 363
a 290 407
a 290 267
a 290 27
a 290 269
a 290 408
a 290 270
a 290 271
a 290 272
a 290 110
a 290 28
a 290 29
a 290 273
a 290 366
a 290 30
a 290 275
a 290 367
a 290 167
a 290 276
a 290 168
a 290 31
a 290 169
a 290 277
a 290 325
a 290 409
a 290 326
a 290 327
a 290 328
a 290 278
a 290 368
a 290 279
a 290 329
a 290 369
a 290 411
a 290 384
a 290 412
a 290 413
a 290 414
a 290 370
a 290 280
a 290 281
a 290 330
a 290 283
a 290 415
a 290 32
a 290 34
a 290 284
a 290 416
a 290 170
a 290 393
a 290 465
a 290 285
a 290 466
a 290 372
a 290 286
a 290 287
a 290 288
a 290 289
a 290 119
a 290 6
a 290 148
a 290 64
a 290 65
a 290 66
a 290 84
a 290 138
a 290 10
a 290 102
a 290 150
a 290 220
a 290 104
a 290 228
a 290 13
a 290 448
a 290 105
a 290 232
a 290 154
a 290 106
a 290 107
a 290 14
a 290 15
a 290 133
a 290 134
a 290 16
a 290 159
a 290 236
a 290 240
a 290 21
a 290 22
a 290 127
a 290 161
a 290 162
a 290 164
a 290 247
a 290 253
a 290 460
a 290 259
a 290 266
a 290 323
a 290 274
a 290 282
a 290 419
a 290 292
a 290 111
a 290 293
a 290 294
a 290 295
a 290 296
a 290 297
a 290 301
a 290 306
a 290 307
a 290 427
a 290 394
a 290 174
a 290 429
a 290 112
a 290 175
a 290 375
a 290 176
a 290 135
a 290 177
a 290 179
a 290 136
a 290 309
a 290 40
a 290 41
a 290 113
a 290 42
a 290 43
a 290 44
a 290 46
a 290 114
a 290 47
a 290 48
a 290 49
a 290 115
a 290 50
a 290 51
a 290 52
a 290 53
a 290 54
a 290 55
a 290 181
a 290 56
a 290 57
a 290 58
a 290 59
a 290 60
a 290 99
a 290 183
a 290 61
a 290 62
a 290 63
a 290 185
a 290 331
a 290 467
a 290 373
a 290 420
a 290 421
a 290 422
a 290 468
a 290 469
a 290 423
a 290 291
a 290 37
a 290 171
a 290 298
a 290 426
a 290 38
a 290 172
a 290 302
a 290 303
a 290 304
a 290 428
a 290 45
a 246 8
a 246 186
a 246 187
a 246 188
a 246 189
a 246 332
a 246 190
a 246 191
a 246 192
a 246 193
a 246 194
a 246 195
a 246 196
a 246 333
a 246 197
a 246 198
a 246 199
a 246 200
a 246 201
a 246 203
a 246 204
a 246 206
a 246 208
a 246 209
a 246 148
a 246 438
a 246 214
a 246 215
a 246 345
a 246 17
a 246 6
a 246 314
a 246 316
a 246 318
a 246 7
a 246 10
a 246 102
a 246 104
a 246 228
a 246 155
a 246 107
a 246 16
a 246 235
a 246 21
a 246 22
a 246 127
a 246 128
a 246 166
a 246 251
a 246 253
a 246 24
a 246 360
a 246 255
a 246 361
a 246 256
a 246 460
a 246 257
a 246 258
a 246 259
a 246 260
a 246 261
a 246 262
a 246 324
a 246 275
a 246 167
a 246 168
a 246 277
a 246 326
a 246 279
a 246 282
a 246 283
a 246 32
a 246 34
a 246 287
a 246 38
a 246 394
a 246 41
a 246 113
a 246 42
a 246 43
a 246 44
a 246 46
a 246 114
a 246 47
a 246 48
a 246 49
a 246 115
a 246 50
a 246 51
a 246 52
a 246 53
a 246 54
a 246 55
a 246 181
a 246 56
a 246 57
a 246 58
a 246 59
a 246 60
a 246 99
a 246 61
a 246 62
a 246 63
a 246 185
a 246 254
a 246 371
a 246 415
a 246 422
a 269 8
a 269 186
a 269 187
a 269 188
a 269 189
a 269 332
a 269 190
a 269 191
a 269 192
a 269 193
a 269 194
a 269 195
a 269 196
a 269 333
a 269 197
a 269 198
a 269 199
a 269 200
a 269 334
a 269 201
a 269 202
a 269 336
a 269 203
a 269 204
a 269 205
a 269 206
a 269 337
a 269 207
a 269 208
a 269 209
a 269 339
a 269 340
a 269 148
a 269 341
a 269 9
a 269 395
a 269 342
a 269 438
a 269 210
a 269 211
a 269 212
a 269 213
a 269 343
a 269 214
a 269 215
a 269 344
a 269 216
a 269 345
a 269 346
a 269 220
a 269 391
a 269 226
a 269 227
a 269 399
a 269 17
a 269 255
a 269 256
a 269 26
a 269 263
a 269 267
a 269 27
a 269 119
a 269 6
a 269 314
a 269 316
a 269 318
a 269 7
a 269 64
a 269 65
a 269 66
a 269 84
a 269 138
a 269 10
a 269 102
a 269 150
a 269 151
a 269 378
a 269 386
a 269 104
a 269 225
a 269 228
a 269 12
a 269 13
a 269 141
a 269 105
a 269 232
a 269 233
a 269 106
a 269 158
a 269 107
a 269 14
a 269 133
a 269 134
a 269 16
a 269 159
a 269 20
a 269 236
a 269 108
a 269 240
a 269 21
a 269 242
a 269 22
a 269 127
a 269 128
a 269 23
a 269 164
a 269 244
a 269 166
a 269 251
a 269 252
a 269 253
a 269 24
a 269 254
a 269 361
a 269 479
a 269 460
a 269 362
a 269 257
a 269 258
a 269 259
a 269 260
a 269 261
a 269 262
a 269 264
a 269 406
a 269 265
a 269 266
a 269 323
a 269 407
a 269 268
a 269 462
a 269 270
a 269 271
a 269 272
a 269 110
a 269 28
a 269 29
a 269 273
a 269 274
a 269 366
a 269 30
a 269 275
a 269 167
a 269 168
a 269 328
a 269 278
a 269 368
a 269 279
a 269 411
a 269 281
a 269 282
a 269 330
a 269 371
a 269 283
a 269 415
a 269 32
a 269 33
a 269 34
a 269 284
a 269 285
a 269 286
a 269 287
a 269 288
a 269 289
a 269 290
a 269 331
a 269 467
a 269 373
a 269 422
a 269 35
a 269 291
a 269 292
a 269 111
a 269 294
a 269 297
a 269 37
a 269 171
a 269 299
a 269 38
a 269 301
a 269 304
a 269 173
a 269 307
a 269 427
a 269 394
a 269 174
a 269 429
a 269 112
a 269 175
a 269 176
a 269 135
a 269 177
a 269 179
a 269 136
a 269 39
a 269 376
a 269 41
a 269 113
a 269 42
a 269 43
a 269 44
a 269 45
a 269 46
a 269 114
a 269 47
a 269 48
a 269 49
a 269 115
a 269 50
a 269 51
a 269 52
a 269 53
a 269 54
a 269 55
a 269 181
a 269 56
a 269 57
a 269 58
a 269 59
a 269 60
a 269 99
a 269 183
a 269 61
a 269 62
a 269 184
a 269 63
a 269 185
a 269 276
a 269 31
a 269 277
a 269 370
a 269 416
a 269 170
a 269 296
a 269 298
a 269 300
a 269 172
a 269 302
a 269 303
a 269 471
a 269 472
a 269 305
a 269 306
a 269 144
a 269 428
a 269 375
a 269 436
a 186 131
a 186 119
a 186 147
a 186 137
a 186 6
a 186 7
a 186 148
a 186 149
a 186 347
a 186 64
a 186 65
a 186 66
a 186 84
a 186 138
a 186 10
a 186 102
a 186 150
a 186 377
a 186 441
a 186 378
a 186 11
a 186 139
a 186 220
a 186 153
a 186 104
a 186 222
a 186 379
a 186 223
a 186 224
a 186 225
a 186 227
a 186 380
a 186 381
a 186 12
a 186 398
a 186 401
a 186 105
a 186 233
a 186 154
a 186 106
a 186 156
a 186 157
a 186 158
a 186 107
a 186 15
a 186 133
a 186 134
a 186 16
a 186 159
a 186 160
a 186 17
a 186 18
a 186 319
a 186 96
a 186 20
a 186 240
a 186 21
a 186 241
a 186 242
a 186 22
a 186 127
a 186 128
a 186 23
a 186 161
a 186 162
a 186 163
a 186 164
a 186 244
a 186 245
a 186 354
a 186 246
a 186 355
a 186 356
a 186 165
a 186 248
a 186 249
a 186 250
a 186 166
a 186 359
a 186 321
a 186 251
a 186 252
a 186 253
a 186 24
a 186 254
a 186 255
a 186 25
a 186 256
a 186 362
a 186 263
a 186 264
a 186 265
a 186 364
a 186 365
a 186 407
a 186 267
a 186 268
a 186 27
a 186 269
a 186 408
a 186 462
a 186 270
a 186 271
a 186 28
a 186 29
a 186 273
a 186 30
a 186 464
a 186 275
a 186 167
a 186 277
a 186 329
a 186 281
a 186 330
a 186 32
a 186 34
a 186 170
a 186 285
a 186 372
a 186 288
a 186 331
a 186 422
a 186 423
a 186 35
a 186 291
a 186 292
a 186 111
a 186 294
a 186 36
a 186 37
a 186 171
a 186 38
a 186 173
a 186 307
a 186 427
a 186 174
a 186 112
a 186 175
a 186 176
a 186 135
a 186 177
a 186 178
a 186 179
a 186 136
a 186 39
a 186 376
a 186 309
a 186 40
a 186 41
a 186 113
a 186 42
a 186 43
a 186 44
a 186 45
a 186 180
a 186 46
a 186 114
a 186 47
a 186 48
a 186 49
a 186 115
a 186 50
a 186 51
a 186 52
a 186 53
a 186 54
a 186 55
a 186 181
a 186 56
a 186 57
a 186 58
a 186 59
a 186 60
a 186 99
a 186 183
a 186 61
a 186 62
a 186 184
a 186 63
a 186 185
a 347 186
a 347 187
a 347 188
a 347 189
a 347 332
a 347 190
a 347 192
a 347 193
a 347 194
a 347 195
a 347 196
a 347 197
a 347 198
a 347 199
a 347 200
a 347 201
a 347 203
a 347 338
a 347 207
a 347 208
a 347 209
a 347 342
a 347 215
a 347 344
a 347 216
a 347 318
a 347 7
a 347 148
a 347 149
a 347 84
a 347 10
a 347 102
a 347 441
a 347 104
a 347 12
a 347 233
a 347 106
a 347 107
a 347 16
a 347 235
a 347 237
a 347 108
a 347 21
a 347 22
a 347 128
a 347 164
a 347 251
a 347 252
a 347 255
a 347 460
a 347 258
a 347 263
a 347 110
a 347 274
a 347 366
a 347 279
a 347 282
a 347 34
a 347 111
a 347 41
a 347 113
a 347 42
a 347 43
a 347 44
a 347 46
a 347 114
a 347 47
a 347 48
a 347 49
a 347 115
a 347 50
a 347 51
a 347 52
a 347 53
a 347 54
a 347 55
a 347 181
a 347 56
a 347 57
a 347 58
a 347 59
a 347 60
a 347 99
a 347 183
a 347 61
a 347 62
a 347 63
a 347 185
a 377 186
a 377 187
a 377 188
a 377 332
a 377 190
a 377 191
a 377 192
a 377 193
a 377 196
a 377 197
a 377 198
a 377 199
a 377 200
a 377 334
a 377 201
a 377 202
a 377 203
a 377 206
a 377 207
a 377 209
a 377 340
a 377 148
a 377 341
a 377 9
a 377 210
a 377 213
a 377 214
a 377 344
a 377 345
a 377 217
a 377 151
a 377 218
a 377 3
a 377 117
a 377 318
a 377 64
a 377 80
a 377 84
a 377 10
a 377 102
a 377 397
a 377 390
a 377 349
a 377 477
a 377 378
a 377 139
a 377 103
a 377 219
a 377 220
a 377 386
a 377 350
a 377 483
a 377 391
a 377 12
a 377 105
a 377 232
a 377 233
a 377 154
a 377 155
a 377 106
a 377 158
a 377 107
a 377 14
a 377 133
a 377 134
a 377 16
a 377 159
a 377 17
a 377 20
a 377 236
a 377 237
a 377 238
a 377 239
a 377 320
a 377 21
a 377 22
a 377 127
a 377 128
a 377 164
a 377 253
a 377 255
a 377 25
a 377 412
a 377 282
a 377 32
a 377 34
a 377 35
a 377 111
a 377 38
a 377 112
a 377 135
a 377 179
a 377 136
a 377 41
a 377 113
a 377 42
a 377 43
a 377 44
a 377 45
a 377 46
a 377 114
a 377 47
a 377 48
a 377 49
a 377 115
a 377 50
a 377 51
a 377 52
a 377 53
a 377 54
a 377 55
a 377 181
a 377 56
a 377 57
a 377 58
a 377 59
a 377 60
a 377 99
a 377 183
a 377 61
a 377 62
a 377 184
a 377 63
a 377 185
a 377 441
a 377 227
a 377 256
a 377 26
a 377 272
a 377 168
a 377 277
a 377 279
a 377 289
a 377 298
a 377 299
a 377 300
a 377 301
a 377 303
a 377 304
a 377 472
a 377 305
a 377 173
a 377 376
a 441 186
a 441 187
a 441 188
a 441 332
a 441 190
a 441 193
a 441 197
a 441 198
a 441 199
a 441 206
a 441 340
a 441 347
a 441 218
a 441 3
a 441 317
a 441 148
a 441 10
a 441 89
a 441 151
a 441 377
a 441 477
a 441 378
a 441 139
a 441 103
a 441 219
a 441 140
a 441 154
a 441 107
a 441 16
a 441 17
a 441 96
a 441 236
a 441 237
a 441 238
a 441 239
a 441 21
a 441 127
a 441 128
a 441 392
a 441 253
a 441 25
a 441 412
a 441 34
a 441 40
a 441 41
a 441 113
a 441 42
a 441 43
a 441 44
a 441 46
a 441 114
a 441 47
a 441 48
a 441 49
a 441 50
a 441 51
a 441 54
a 441 55
a 441 181
a 441 56
a 441 57
a 441 58
a 441 59
a 441 60
a 441 61
a 441 62
a 441 63
a 441 349
a 441 220
a 441 445
a 441 391
a 441 20
a 441 97
a 441 143
a 441 240
a 441 241
a 441 242
a 441 456
a 441 161
a 441 164
a 441 252
a 441 407
a 441 130
a 441 275
a 441 167
a 441 277
a 441 326
a 441 280
a 441 330
a 441 283
a 441 32
a 441 33
a 441 285
a 441 372
a 441 289
a 441 373
a 441 423
a 441 292
a 441 37
a 441 38
a 441 301
a 441 305
a 441 144
a 441 394
a 441 112
a 441 431
a 441 308
a 441 135
a 441 177
a 441 178
a 441 179
a 441 39
a 441 115
a 139 186
a 139 187
a 139 188
a 139 189
a 139 332
a 139 196
a 139 198
a 139 206
a 139 340
a 139 148
a 139 395
a 139 342
a 139 212
a 139 213
a 139 214
a 139 344
a 139 216
a 139 151
a 139 397
a 139 218
a 139 377
a 139 441
a 139 349
a 139 477
a 139 378
a 139 3
a 139 117
a 139 100
a 139 318
a 139 7
a 139 66
a 139 80
a 139 10
a 139 89
a 139 90
a 139 390
a 139 442
a 139 103
a 139 219
a 139 350
a 139 483
a 139 221
a 139 104
a 139 12
a 139 140
a 139 141
a 139 142
a 139 105
a 139 154
a 139 155
a 139 158
a 139 107
a 139 134
a 139 16
a 139 404
a 139 17
a 139 18
a 139 96
a 139 352
a 139 20
a 139 236
a 139 237
a 139 238
a 139 239
a 139 320
a 139 21
a 139 127
a 139 128
a 139 392
a 139 164
a 139 253
a 139 25
a 139 30
a 139 275
a 139 167
a 139 412
a 139 414
a 139 280
a 139 32
a 139 34
a 139 307
a 139 112
a 139 40
a 139 41
a 139 113
a 139 42
a 139 43
a 139 44
a 139 46
a 139 114
a 139 47
a 139 48
a 139 49
a 139 50
a 139 51
a 139 52
a 139 53
a 139 54
a 139 55
a 139 181
a 139 56
a 139 57
a 139 58
a 139 59
a 139 60
a 139 61
a 139 396
a 139 62
a 139 184
a 139 63
a 139 185
a 139 220
a 139 386
a 139 153
a 139 445
a 139 446
a 139 391
a 139 231
a 139 451
a 139 232
a 139 97
a 139 108
a 139 98
a 139 143
a 139 23
a 139 456
a 139 243
a 139 161
a 139 162
a 139 163
a 139 251
a 139 27
a 139 28
a 139 367
a 139 31
a 139 277
a 139 325
a 139 279
a 139 411
a 139 384
a 139 281
a 139 330
a 139 283
a 139 284
a 139 372
a 139 291
a 139 292
a 139 294
a 139 297
a 139 38
a 139 301
a 139 471
a 139 144
a 139 394
a 139 374
a 139 135
a 139 39
a 139 433
a 139 115
a 139 312
a 222 186
a 222 187
a 222 188
a 222 189
a 222 332
a 222 206
a 222 209
a 222 340
a 222 148
a 222 341
a 222 214
a 222 149
a 222 348
a 222 349
a 222 378
a 222 350
a 222 221
a 222 104
a 222 137
a 222 6
a 222 318
a 222 10
a 222 102
a 222 151
a 222 446
a 222 379
a 222 225
a 222 381
a 222 12
a 222 232
a 222 106
a 222 107
a 222 16
a 222 17
a 222 96
a 222 240
a 222 21
a 222 22
a 222 128
a 222 164
a 222 251
a 222 253
a 222 255
a 222 28
a 222 29
a 222 273
a 222 30
a 222 167
a 222 413
a 222 280
a 222 32
a 222 34
a 222 38
a 222 394
a 222 429
a 222 112
a 222 41
a 222 113
a 222 42
a 222 43
a 222 44
a 222 46
a 222 114
a 222 47
a 222 48
a 222 49
a 222 115
a 222 50
a 222 51
a 222 52
a 222 53
a 222 54
a 222 55
a 222 181
a 222 56
a 222 57
a 222 58
a 222 59
a 222 60
a 222 99
a 222 183
a 222 61
a 222 62
a 222 184
a 222 63
a 222 185
a 222 223
a 222 224
a 222 226
a 222 227
a 222 228
a 222 13
a 222 229
a 222 447
a 222 448
a 222 230
a 222 398
a 222 231
a 222 449
a 222 399
a 222 400
a 222 401
a 222 402
a 222 450
a 222 451
a 222 141
a 222 233
a 222 158
a 222 127
a 222 392
a 222 456
a 222 243
a 222 161
a 222 162
a 222 163
a 222 256
a 222 263
a 222 268
a 222 27
a 222 168
a 222 31
a 222 277
a 222 412
a 222 289
a 222 373
a 222 422
a 222 423
a 222 291
a 222 294
a 222 298
a 222 426
a 222 299
a 222 301
a 222 302
a 222 303
a 222 304
a 222 472
a 222 305
a 222 173
a 222 306
a 222 144
a 222 308
a 222 473
a 222 135
a 222 39
a 222 40
a 379 186
a 379 187
a 379 188
a 379 189
a 379 332
a 379 190
a 379 191
a 379 192
a 379 193
a 379 194
a 379 195
a 379 196
a 379 333
a 379 197
a 379 198
a 379 199
a 379 200
a 379 201
a 379 206
a 379 337
a 379 207
a 379 209
a 379 340
a 379 148
a 379 341
a 379 9
a 379 395
a 379 213
a 379 214
a 379 215
a 379 345
a 379 104
a 379 222
a 379 137
a 379 10
a 379 221
a 379 225
a 379 16
a 379 21
a 379 128
a 379 251
a 379 253
a 379 255
a 379 28
a 379 29
a 379 273
a 379 30
a 379 413
a 379 34
a 379 394
a 379 41
a 379 113
a 379 42
a 379 43
a 379 44
a 379 46
a 379 114
a 379 48
a 379 49
a 379 50
a 379 52
a 379 53
a 379 54
a 379 55
a 379 181
a 379 56
a 379 57
a 379 58
a 379 59
a 379 60
a 379 61
a 379 62
a 379 63
a 379 185
a 379 223
a 379 226
a 379 227
a 379 228
a 379 381
a 379 12
a 379 13
a 379 229
a 379 448
a 379 230
a 379 231
a 379 107
a 379 17
a 379 164
a 379 109
a 379 256
a 379 112
a 379 473
a 379 40
a 223 186
a 223 187
a 223 188
a 223 189
a 223 332
a 223 190
a 223 191
a 223 192
a 223 193
a 223 194
a 223 195
a 223 196
a 223 333
a 223 197
a 223 198
a 223 199
a 223 200
a 223 334
a 223 201
a 223 202
a 223 203
a 223 206
a 223 337
a 223 209
a 223 340
a 223 148
a 223 341
a 223 9
a 223 395
a 223 342
a 223 438
a 223 210
a 223 212
a 223 213
a 223 214
a 223 215
a 223 345
a 223 104
a 223 6
a 223 318
a 223 64
a 223 84
a 223 10
a 223 102
a 223 378
a 223 220
a 223 386
a 223 446
a 223 221
a 223 222
a 223 379
a 223 225
a 223 381
a 223 12
a 223 450
a 223 141
a 223 105
a 223 232
a 223 154
a 223 106
a 223 107
a 223 14
a 223 133
a 223 134
a 223 16
a 223 17
a 223 18
a 223 96
a 223 236
a 223 240
a 223 21
a 223 242
a 223 22
a 223 127
a 223 128
a 223 164
a 223 359
a 223 251
a 223 253
a 223 255
a 223 25
a 223 260
a 223 261
a 223 264
a 223 323
a 223 268
a 223 271
a 223 110
a 223 28
a 223 29
a 223 273
a 223 30
a 223 167
a 223 413
a 223 280
a 223 34
a 223 111
a 223 38
a 223 394
a 223 429
a 223 112
a 223 135
a 223 136
a 223 39
a 223 41
a 223 113
a 223 42
a 223 43
a 223 44
a 223 45
a 223 46
a 223 114
a 223 47
a 223 48
a 223 49
a 223 115
a 223 50
a 223 51
a 223 52
a 223 53
a 223 54
a 223 55
a 223 181
a 223 56
a 223 57
a 223 58
a 223 59
a 223 60
a 223 99
a 223 183
a 223 61
a 223 62
a 223 184
a 223 63
a 223 185
a 223 224
a 223 226
a 223 227
a 223 401
a 223 31
a 223 298
a 223 302
a 223 303
a 223 472
a 223 305
a 223 173
a 224 186
a 224 187
a 224 188
a 224 189
a 224 332
a 224 190
a 224 191
a 224 192
a 224 193
a 224 194
a 224 195
a 224 196
a 224 333
a 224 197
a 224 198
a 224 199
a 224 200
a 224 334
a 224 201
a 224 202
a 224 206
a 224 207
a 224 209
a 224 340
a 224 148
a 224 341
a 224 214
a 224 6
a 224 318
a 224 84
a 224 10
a 224 102
a 224 378
a 224 221
a 224 104
a 224 222
a 224 223
a 224 225
a 224 381
a 224 12
a 224 232
a 224 154
a 224 106
a 224 107
a 224 16
a 224 18
a 224 96
a 224 240
a 224 21
a 224 22
a 224 127
a 224 128
a 224 164
a 224 251
a 224 253
a 224 255
a 224 25
a 224 264
a 224 271
a 224 110
a 224 28
a 224 29
a 224 273
a 224 167
a 224 413
a 224 34
a 224 111
a 224 38
a 224 394
a 224 429
a 224 112
a 224 39
a 224 41
a 224 113
a 224 42
a 224 43
a 224 44
a 224 46
a 224 114
a 224 47
a 224 48
a 224 49
a 224 115
a 224 50
a 224 51
a 224 52
a 224 53
a 224 54
a 224 55
a 224 181
a 224 56
a 224 57
a 224 58
a 224 59
a 224 60
a 224 99
a 224 183
a 224 61
a 224 62
a 224 184
a 224 63
a 224 226
a 224 227
a 224 472
a 224 305
a 224 173
a 225 186
a 225 187
a 225 188
a 225 189
a 225 332
a 225 190
a 225 191
a 225 192
a 225 193
a 225 194
a 225 195
a 225 196
a 225 333
a 225 197
a 225 198
a 225 199
a 225 200
a 225 334
a 225 201
a 225 202
a 225 336
a 225 203
a 225 204
a 225 205
a 225 206
a 225 337
a 225 207
a 225 208
a 225 209
a 225 339
a 225 340
a 225 148
a 225 341
a 225 9
a 225 395
a 225 342
a 225 438
a 225 210
a 225 211
a 225 212
a 225 213
a 225 343
a 225 214
a 225 215
a 225 344
a 225 216
a 225 345
a 225 346
a 225 221
a 225 104
a 225 222
a 225 379
a 225 223
a 225 224
a 225 137
a 225 6
a 225 318
a 225 84
a 225 10
a 225 102
a 225 220
a 225 386
a 225 381
a 225 12
a 225 232
a 225 154
a 225 106
a 225 107
a 225 14
a 225 133
a 225 134
a 225 16
a 225 17
a 225 319
a 225 96
a 225 236
a 225 240
a 225 21
a 225 22
a 225 128
a 225 23
a 225 164
a 225 251
a 225 253
a 225 255
a 225 25
a 225 271
a 225 110
a 225 28
a 225 29
a 225 273
a 225 30
a 225 167
a 225 326
a 225 328
a 225 413
a 225 280
a 225 281
a 225 330
a 225 32
a 225 34
a 225 35
a 225 111
a 225 299
a 225 38
a 225 172
a 225 394
a 225 429
a 225 112
a 225 136
a 225 41
a 225 113
a 225 42
a 225 43
a 225 44
a 225 45
a 225 46
a 225 114
a 225 47
a 225 48
a 225 49
a 225 115
a 225 50
a 225 51
a 225 52
a 225 53
a 225 54
a 225 55
a 225 181
a 225 56
a 225 57
a 225 58
a 225 59
a 225 60
a 225 99
a 225 183
a 225 61
a 225 62
a 225 184
a 225 63
a 225 185
a 225 226
a 225 227
a 225 228
a 225 13
a 225 229
a 225 447
a 225 448
a 225 230
a 225 398
a 225 231
a 225 449
a 225 399
a 225 400
a 225 401
a 225 402
a 225 450
a 225 451
a 225 233
a 225 158
a 225 403
a 225 97
a 225 127
a 225 161
a 225 256
a 225 26
a 225 268
a 225 269
a 225 270
a 225 31
a 225 277
a 225 327
a 225 371
a 225 372
a 225 286
a 225 373
a 225 422
a 225 294
a 225 298
a 225 426
a 225 301
a 225 302
a 225 303
a 225 304
a 225 472
a 225 305
a 225 173
a 225 306
a 225 307
a 225 144
a 225 374
a 225 431
a 225 308
a 225 473
a 225 135
a 225 433
a 225 309
a 225 40
a 227 186
a 227 187
a 227 188
a 227 332
a 227 190
a 227 191
a 227 192
a 227 193
a 227 194
a 227 195
a 227 196
a 227 333
a 227 197
a 227 198
a 227 199
a 227 200
a 227 334
a 227 201
a 227 206
a 227 207
a 227 209
a 227 148
a 227 345
a 227 226
a 227 6
a 227 318
a 227 84
a 227 10
a 227 102
a 227 377
a 227 378
a 227 221
a 227 104
a 227 222
a 227 379
a 227 223
a 227 224
a 227 225
a 227 381
a 227 12
a 227 229
a 227 230
a 227 398
a 227 232
a 227 233
a 227 106
a 227 16
a 227 96
a 227 236
a 227 240
a 227 21
a 227 242
a 227 22
a 227 127
a 227 128
a 227 164
a 227 354
a 227 356
a 227 359
a 227 251
a 227 253
a 227 254
a 227 255
a 227 25
a 227 260
a 227 263
a 227 264
a 227 265
a 227 364
a 227 365
a 227 407
a 227 267
a 227 268
a 227 269
a 227 271
a 227 28
a 227 29
a 227 273
a 227 275
a 227 167
a 227 413
a 227 32
a 227 34
a 227 285
a 227 373
a 227 420
a 227 423
a 227 291
a 227 292
a 227 111
a 227 38
a 227 427
a 227 394
a 227 376
a 227 41
a 227 113
a 227 42
a 227 43
a 227 44
a 227 46
a 227 114
a 227 47
a 227 48
a 227 49
a 227 115
a 227 50
a 227 51
a 227 52
a 227 53
a 227 54
a 227 55
a 227 181
a 227 56
a 227 57
a 227 58
a 227 59
a 227 60
a 227 311
a 227 99
a 227 183
a 227 61
a 227 62
a 227 63
a 227 185
a 380 186
a 380 187
a 380 188
a 380 189
a 380 190
a 380 191
a 380 192
a 380 193
a 380 194
a 380 195
a 380 196
a 380 333
a 380 197
a 380 198
a 380 199
a 380 200
a 380 334
a 380 201
a 380 202
a 380 203
a 380 204
a 380 205
a 380 337
a 380 207
a 380 208
a 380 209
a 380 339
a 380 340
a 380 148
a 380 9
a 380 395
a 380 342
a 380 210
a 380 212
a 380 343
a 380 214
a 380 344
a 380 137
a 380 318
a 380 10
a 380 221
a 380 104
a 380 16
a 380 17
a 380 240
a 380 21
a 380 22
a 380 253
a 380 28
a 380 29
a 380 30
a 380 167
a 380 413
a 380 32
a 380 34
a 380 394
a 380 41
a 380 113
a 380 42
a 380 43
a 380 44
a 380 46
a 380 114
a 380 47
a 380 48
a 380 49
a 380 115
a 380 50
a 380 51
a 380 52
a 380 53
a 380 54
a 380 55
a 380 181
a 380 56
a 380 57
a 380 58
a 380 59
a 380 60
a 380 61
a 380 62
a 380 63
a 380 26
a 380 463
a 380 280
a 381 186
a 381 187
a 381 188
a 381 189
a 381 332
a 381 190
a 381 191
a 381 192
a 381 193
a 381 194
a 381 195
a 381 196
a 381 333
a 381 197
a 381 198
a 381 199
a 381 200
a 381 201
a 381 203
a 381 205
a 381 206
a 381 337
a 381 207
a 381 208
a 381 209
a 381 9
a 381 221
a 381 104
a 381 222
a 381 223
a 381 224
a 381 225
a 381 226
a 381 227
a 381 228
a 381 318
a 381 148
a 381 10
a 381 379
a 381 16
a 381 96
a 381 240
a 381 21
a 381 128
a 381 251
a 381 253
a 381 255
a 381 110
a 381 28
a 381 29
a 381 273
a 381 167
a 381 413
a 381 34
a 381 394
a 381 39
a 381 41
a 381 113
a 381 42
a 381 43
a 381 44
a 381 46
a 381 114
a 381 47
a 381 48
a 381 49
a 381 50
a 381 51
a 381 52
a 381 53
a 381 54
a 381 55
a 381 181
a 381 56
a 381 57
a 381 58
a 381 59
a 381 60
a 381 61
a 381 62
a 381 63
a 381 185
a 381 12
a 381 13
a 381 229
a 381 447
a 381 448
a 381 230
a 381 398
a 381 231
a 381 449
a 381 399
a 381 400
a 381 401
a 381 402
a 381 451
a 381 141
a 381 233
a 381 158
a 381 97
a 381 164
a 381 256
a 381 268
a 381 372
a 381 373
a 381 422
a 381 38
a 381 472
a 381 305
a 381 144
a 381 308
a 381 135
a 381 433
a 381 309
a 398 186
a 398 187
a 398 188
a 398 189
a 398 332
a 398 190
a 398 191
a 398 192
a 398 193
a 398 194
a 398 196
a 398 333
a 398 197
a 398 198
a 398 199
a 398 206
a 398 209
a 398 340
a 398 227
a 398 318
a 398 148
a 398 84
a 398 10
a 398 89
a 398 102
a 398 151
a 398 397
a 398 390
a 398 349
a 398 378
a 398 11
a 398 219
a 398 220
a 398 153
a 398 446
a 398 391
a 398 104
a 398 222
a 398 225
a 398 381
a 398 12
a 398 231
a 398 142
a 398 105
a 398 232
a 398 106
a 398 107
a 398 14
a 398 133
a 398 134
a 398 16
a 398 17
a 398 20
a 398 236
a 398 237
a 398 239
a 398 240
a 398 21
a 398 22
a 398 127
a 398 128
a 398 392
a 398 164
a 398 251
a 398 253
a 398 255
a 398 256
a 398 26
a 398 362
a 398 257
a 398 260
a 398 261
a 398 263
a 398 264
a 398 406
a 398 265
a 398 27
a 398 271
a 398 272
a 398 110
a 398 28
a 398 29
a 398 273
a 398 274
a 398 366
a 398 30
a 398 275
a 398 167
a 398 168
a 398 279
a 398 280
a 398 281
a 398 282
a 398 283
a 398 32
a 398 34
a 398 289
a 398 290
a 398 35
a 398 111
a 398 38
a 398 174
a 398 112
a 398 308
a 398 135
a 398 432
a 398 41
a 398 113
a 398 42
a 398 43
a 398 44
a 398 46
a 398 114
a 398 47
a 398 48
a 398 49
a 398 115
a 398 50
a 398 51
a 398 52
a 398 53
a 398 54
a 398 55
a 398 181
a 398 56
a 398 57
a 398 58
a 398 59
a 398 60
a 398 99
a 398 183
a 398 61
a 398 62
a 398 184
a 398 63
a 398 185
a 398 294
a 398 297
a 398 298
a 398 302
a 398 303
a 398 472
a 398 305
a 398 173
a 401 186
a 401 187
a 401 188
a 401 189
a 401 332
a 401 190
a 401 191
a 401 192
a 401 193
a 401 194
a 401 195
a 401 196
a 401 333
a 401 197
a 401 198
a 401 199
a 401 200
a 401 201
a 401 202
a 401 203
a 401 206
a 401 207
a 401 209
a 401 340
a 401 148
a 401 341
a 401 214
a 401 215
a 401 216
a 401 345
a 401 84
a 401 10
a 401 102
a 401 151
a 401 349
a 401 378
a 401 220
a 401 446
a 401 391
a 401 221
a 401 104
a 401 222
a 401 223
a 401 225
a 401 228
a 401 381
a 401 12
a 401 399
a 401 402
a 401 105
a 401 232
a 401 106
a 401 107
a 401 133
a 401 134
a 401 16
a 401 96
a 401 236
a 401 240
a 401 21
a 401 22
a 401 128
a 401 392
a 401 164
a 401 251
a 401 253
a 401 255
a 401 25
a 401 264
a 401 271
a 401 110
a 401 28
a 401 29
a 401 273
a 401 274
a 401 366
a 401 30
a 401 167
a 401 279
a 401 283
a 401 32
a 401 34
a 401 289
a 401 291
a 401 111
a 401 38
a 401 112
a 401 40
a 401 41
a 401 113
a 401 42
a 401 43
a 401 44
a 401 46
a 401 114
a 401 47
a 401 48
a 401 49
a 401 115
a 401 50
a 401 51
a 401 52
a 401 53
a 401 54
a 401 55
a 401 181
a 401 56
a 401 57
a 401 58
a 401 59
a 401 60
a 401 99
a 401 183
a 401 61
a 401 62
a 401 184
a 401 63
a 401 185
a 401 423
a 401 303
a 401 305
a 401 173
a 242 186
a 242 187
a 242 188
a 242 189
a 242 332
a 242 190
a 242 191
a 242 192
a 242 193
a 242 194
a 242 195
a 242 196
a 242 333
a 242 197
a 242 198
a 242 199
a 242 200
a 242 334
a 242 201
a 242 202
a 242 336
a 242 203
a 242 204
a 242 206
a 242 337
a 242 207
a 242 208
a 242 209
a 242 340
a 242 148
a 242 341
a 242 9
a 242 395
a 242 342
a 242 438
a 242 210
a 242 212
a 242 213
a 242 343
a 242 214
a 242 215
a 242 345
a 242 223
a 242 226
a 242 227
a 242 6
a 242 318
a 242 317
a 242 7
a 242 8
a 242 10
a 242 89
a 242 90
a 242 91
a 242 102
a 242 151
a 242 441
a 242 12
a 242 105
a 242 232
a 242 233
a 242 154
a 242 106
a 242 107
a 242 133
a 242 16
a 242 17
a 242 319
a 242 236
a 242 237
a 242 320
a 242 240
a 242 21
a 242 241
a 242 22
a 242 128
a 242 164
a 242 248
a 242 166
a 242 321
a 242 253
a 242 24
a 242 255
a 242 25
a 242 129
a 242 324
a 242 110
a 242 28
a 242 167
a 242 410
a 242 279
a 242 280
a 242 32
a 242 34
a 242 38
a 242 394
a 242 429
a 242 112
a 242 136
a 242 41
a 242 113
a 242 42
a 242 43
a 242 44
a 242 45
a 242 46
a 242 114
a 242 47
a 242 48
a 242 49
a 242 115
a 242 50
a 242 51
a 242 52
a 242 53
a 242 54
a 242 55
a 242 181
a 242 56
a 242 57
a 242 58
a 242 59
a 242 60
a 242 99
a 242 183
a 242 61
a 242 62
a 242 184
a 242 63
a 242 185
a 242 485
a 242 256
a 242 407
a 242 269
a 242 272
a 242 328
a 242 411
a 242 384
a 242 412
a 242 413
a 242 414
a 242 370
a 242 330
a 242 393
a 242 465
a 242 285
a 242 372
a 242 373
a 242 420
a 242 421
a 242 422
a 242 468
a 242 423
a 242 111
a 242 299
a 242 305
a 245 186
a 245 187
a 245 188
a 245 189
a 245 332
a 245 190
a 245 191
a 245 192
a 245 193
a 245 194
a 245 195
a 245 196
a 245 333
a 245 197
a 245 198
a 245 199
a 245 200
a 245 334
a 245 201
a 245 202
a 245 336
a 245 203
a 245 204
a 245 205
a 245 206
a 245 337
a 245 207
a 245 208
a 245 209
a 245 340
a 245 148
a 245 341
a 245 9
a 245 395
a 245 342
a 245 438
a 245 210
a 245 213
a 245 214
a 245 215
a 245 345
a 245 6
a 245 318
a 245 7
a 245 84
a 245 10
a 245 102
a 245 104
a 245 228
a 245 105
a 245 232
a 245 106
a 245 107
a 245 16
a 245 17
a 245 319
a 245 235
a 245 240
a 245 21
a 245 241
a 245 22
a 245 127
a 245 164
a 245 244
a 245 357
a 245 252
a 245 253
a 245 24
a 245 255
a 245 256
a 245 26
a 245 460
a 245 263
a 245 265
a 245 323
a 245 267
a 245 30
a 245 275
a 245 167
a 245 168
a 245 277
a 245 326
a 245 282
a 245 283
a 245 32
a 245 34
a 245 289
a 245 111
a 245 38
a 245 394
a 245 41
a 245 113
a 245 42
a 245 43
a 245 44
a 245 45
a 245 46
a 245 114
a 245 47
a 245 48
a 245 49
a 245 115
a 245 50
a 245 51
a 245 52
a 245 53
a 245 54
a 245 55
a 245 181
a 245 56
a 245 57
a 245 58
a 245 59
a 245 60
a 245 99
a 245 61
a 245 62
a 245 63
a 354 186
a 354 187
a 354 188
a 354 189
a 354 332
a 354 190
a 354 191
a 354 192
a 354 193
a 354 194
a 354 195
a 354 196
a 354 333
a 354 197
a 354 198
a 354 199
a 354 200
a 354 201
a 354 202
a 354 203
a 354 206
a 354 207
a 354 209
a 354 340
a 354 148
a 354 395
a 354 342
a 354 213
a 354 214
a 354 215
a 354 345
a 354 226
a 354 227
a 354 314
a 354 7
a 354 10
a 354 104
a 354 107
a 354 16
a 354 17
a 354 20
a 354 240
a 354 21
a 354 241
a 354 127
a 354 165
a 354 359
a 354 253
a 354 24
a 354 25
a 354 279
a 354 32
a 354 34
a 354 394
a 354 41
a 354 113
a 354 42
a 354 43
a 354 44
a 354 46
a 354 114
a 354 47
a 354 48
a 354 49
a 354 50
a 354 51
a 354 52
a 354 53
a 354 54
a 354 55
a 354 181
a 354 56
a 354 57
a 354 58
a 354 59
a 354 60
a 354 61
a 354 62
a 354 63
a 354 302
a 355 186
a 355 187
a 355 188
a 355 189
a 355 332
a 355 190
a 355 191
a 355 192
a 355 193
a 355 194
a 355 195
a 355 196
a 355 333
a 355 197
a 355 198
a 355 199
a 355 200
a 355 201
a 355 336
a 355 203
a 355 204
a 355 205
a 355 206
a 355 207
a 355 208
a 355 209
a 355 339
a 355 340
a 355 148
a 355 341
a 355 213
a 355 214
a 355 344
a 355 318
a 355 7
a 355 10
a 355 104
a 355 228
a 355 107
a 355 16
a 355 17
a 355 235
a 355 20
a 355 240
a 355 21
a 355 22
a 355 127
a 355 359
a 355 253
a 355 24
a 355 255
a 355 256
a 355 26
a 355 265
a 355 323
a 355 267
a 355 30
a 355 167
a 355 168
a 355 277
a 355 326
a 355 282
a 355 283
a 355 34
a 355 289
a 355 38
a 355 394
a 355 41
a 355 113
a 355 42
a 355 43
a 355 44
a 355 46
a 355 114
a 355 47
a 355 49
a 355 50
a 355 51
a 355 52
a 355 53
a 355 54
a 355 55
a 355 181
a 355 56
a 355 57
a 355 58
a 355 59
a 355 60
a 355 61
a 355 62
a 355 63
a 356 186
a 356 187
a 356 188
a 356 189
a 356 332
a 356 190
a 356 191
a 356 192
a 356 193
a 356 194
a 356 195
a 356 196
a 356 333
a 356 197
a 356 198
a 356 199
a 356 200
a 356 201
a 356 202
a 356 336
a 356 203
a 356 204
a 356 206
a 356 207
a 356 208
a 356 209
a 356 340
a 356 148
a 356 341
a 356 395
a 356 342
a 356 438
a 356 210
a 356 212
a 356 213
a 356 214
a 356 215
a 356 345
a 356 227
a 356 318
a 356 7
a 356 8
a 356 10
a 356 104
a 356 107
a 356 16
a 356 17
a 356 20
a 356 236
a 356 240
a 356 21
a 356 127
a 356 128
a 356 166
a 356 359
a 356 251
a 356 253
a 356 24
a 356 255
a 356 25
a 356 256
a 356 460
a 356 259
a 356 263
a 356 265
a 356 323
a 356 363
a 356 271
a 356 110
a 356 28
a 356 273
a 356 274
a 356 366
a 356 275
a 356 279
a 356 32
a 356 34
a 356 289
a 356 422
a 356 292
a 356 427
a 356 394
a 356 112
a 356 41
a 356 113
a 356 42
a 356 43
a 356 44
a 356 46
a 356 114
a 356 47
a 356 48
a 356 49
a 356 50
a 356 51
a 356 52
a 356 53
a 356 54
a 356 55
a 356 181
a 356 56
a 356 57
a 356 58
a 356 59
a 356 60
a 356 61
a 356 62
a 356 63
a 356 185
a 356 302
a 356 305
a 359 186
a 359 187
a 359 188
a 359 189
a 359 332
a 359 190
a 359 191
a 359 192
a 359 193
a 359 194
a 359 195
a 359 196
a 359 333
a 359 197
a 359 198
a 359 200
a 359 334
a 359 201
a 359 202
a 359 203
a 359 204
a 359 206
a 359 337
a 359 207
a 359 208
a 359 209
a 359 340
a 359 148
a 359 341
a 359 9
a 359 395
a 359 342
a 359 438
a 359 210
a 359 212
a 359 213
a 359 214
a 359 215
a 359 345
a 359 223
a 359 226
a 359 227
a 359 164
a 359 354
a 359 355
a 359 356
a 359 357
a 359 358
a 359 247
a 359 165
a 359 318
a 359 7
a 359 10
a 359 104
a 359 228
a 359 142
a 359 154
a 359 155
a 359 16
a 359 17
a 359 235
a 359 20
a 359 320
a 359 240
a 359 21
a 359 22
a 359 127
a 359 128
a 359 23
a 359 244
a 359 250
a 359 253
a 359 24
a 359 322
a 359 255
a 359 256
a 359 26
a 359 265
a 359 323
a 359 267
a 359 28
a 359 30
a 359 168
a 359 277
a 359 325
a 359 326
a 359 279
a 359 282
a 359 283
a 359 32
a 359 34
a 359 289
a 359 35
a 359 38
a 359 394
a 359 41
a 359 113
a 359 42
a 359 43
a 359 44
a 359 46
a 359 114
a 359 47
a 359 48
a 359 49
a 359 115
a 359 50
a 359 52
a 359 53
a 359 54
a 359 55
a 359 181
a 359 56
a 359 57
a 359 58
a 359 59
a 359 60
a 359 61
a 359 62
a 359 184
a 359 63
a 359 185
a 359 266
a 359 363
a 359 297
a 359 305
a 359 144
a 359 374
a 359 177
a 359 178
a 252 186
a 252 187
a 252 188
a 252 189
a 252 332
a 252 190
a 252 191
a 252 192
a 252 193
a 252 194
a 252 195
a 252 196
a 252 333
a 252 197
a 252 198
a 252 199
a 252 200
a 252 334
a 252 201
a 252 202
a 252 336
a 252 203
a 252 204
a 252 206
a 252 207
a 252 208
a 252 209
a 252 340
a 252 148
a 252 341
a 252 9
a 252 395
a 252 342
a 252 438
a 252 211
a 252 212
a 252 213
a 252 214
a 252 215
a 252 344
a 252 345
a 252 346
a 252 439
a 252 347
a 252 151
a 252 11
a 252 350
a 252 391
a 252 221
a 252 154
a 252 155
a 252 158
a 252 134
a 252 97
a 252 143
a 252 127
a 252 128
a 252 164
a 252 245
a 252 117
a 252 137
a 252 6
a 252 318
a 252 7
a 252 84
a 252 10
a 252 89
a 252 90
a 252 91
a 252 102
a 252 441
a 252 104
a 252 228
a 252 12
a 252 13
a 252 140
a 252 105
a 252 232
a 252 233
a 252 106
a 252 107
a 252 133
a 252 16
a 252 17
a 252 96
a 252 236
a 252 237
a 252 239
a 252 21
a 252 22
a 252 485
a 252 244
a 252 166
a 252 251
a 252 253
a 252 24
a 252 254
a 252 322
a 252 255
a 252 256
a 252 26
a 252 460
a 252 362
a 252 129
a 252 324
a 252 110
a 252 28
a 252 30
a 252 167
a 252 168
a 252 277
a 252 328
a 252 279
a 252 280
a 252 283
a 252 32
a 252 34
a 252 292
a 252 111
a 252 394
a 252 112
a 252 136
a 252 40
a 252 41
a 252 113
a 252 42
a 252 43
a 252 44
a 252 45
a 252 46
a 252 114
a 252 47
a 252 48
a 252 49
a 252 115
a 252 50
a 252 51
a 252 52
a 252 53
a 252 54
a 252 55
a 252 181
a 252 56
a 252 57
a 252 58
a 252 59
a 252 60
a 252 99
a 252 183
a 252 61
a 252 62
a 252 63
a 252 185
a 252 263
a 252 264
a 252 265
a 252 407
a 252 268
a 252 269
a 252 271
a 252 272
a 252 464
a 252 367
a 252 31
a 252 169
a 252 325
a 252 326
a 252 281
a 252 330
a 252 33
a 252 285
a 252 289
a 252 421
a 252 468
a 252 35
a 252 291
a 252 297
a 252 37
a 252 298
a 252 426
a 252 299
a 252 38
a 252 172
a 252 302
a 252 304
a 252 305
a 252 307
a 252 427
a 252 144
a 252 374
a 254 186
a 254 187
a 254 188
a 254 189
a 254 332
a 254 190
a 254 191
a 254 192
a 254 193
a 254 194
a 254 195
a 254 196
a 254 333
a 254 197
a 254 198
a 254 199
a 254 200
a 254 334
a 254 201
a 254 202
a 254 336
a 254 203
a 254 204
a 254 205
a 254 206
a 254 337
a 254 207
a 254 208
a 254 209
a 254 339
a 254 340
a 254 148
a 254 341
a 254 9
a 254 342
a 254 438
a 254 210
a 254 211
a 254 212
a 254 213
a 254 214
a 254 215
a 254 216
a 254 226
a 254 227
a 254 447
a 254 20
a 254 236
a 254 127
a 254 128
a 254 23
a 254 164
a 254 252
a 254 253
a 254 6
a 254 316
a 254 318
a 254 7
a 254 8
a 254 80
a 254 83
a 254 84
a 254 10
a 254 102
a 254 151
a 254 221
a 254 104
a 254 228
a 254 12
a 254 140
a 254 141
a 254 232
a 254 233
a 254 154
a 254 155
a 254 106
a 254 107
a 254 16
a 254 17
a 254 96
a 254 237
a 254 320
a 254 240
a 254 21
a 254 22
a 254 244
a 254 246
a 254 249
a 254 250
a 254 166
a 254 251
a 254 24
a 254 322
a 254 255
a 254 460
a 254 261
a 254 264
a 254 30
a 254 367
a 254 410
a 254 279
a 254 414
a 254 281
a 254 32
a 254 34
a 254 111
a 254 394
a 254 112
a 254 41
a 254 113
a 254 42
a 254 43
a 254 44
a 254 46
a 254 114
a 254 47
a 254 48
a 254 49
a 254 115
a 254 50
a 254 51
a 254 52
a 254 53
a 254 54
a 254 55
a 254 181
a 254 56
a 254 57
a 254 58
a 254 59
a 254 60
a 254 99
a 254 61
a 254 62
a 254 63
a 254 185
a 254 407
a 254 267
a 254 268
a 254 27
a 254 269
a 254 272
a 254 110
a 254 167
a 254 280
a 254 33
a 254 285
a 254 373
a 254 420
a 254 421
a 254 422
a 254 468
a 254 423
a 254 171
a 254 298
a 254 426
a 254 299
a 254 38
a 254 302
a 254 303
a 254 472
a 254 305
a 254 173
a 362 186
a 362 187
a 362 188
a 362 189
a 362 332
a 362 191
a 362 192
a 362 193
a 362 194
a 362 195
a 362 196
a 362 333
a 362 197
a 362 198
a 362 199
a 362 200
a 362 334
a 362 201
a 362 203
a 362 207
a 362 209
a 362 339
a 362 346
a 362 439
a 362 348
a 362 12
a 362 398
a 362 399
a 362 107
a 362 17
a 362 18
a 362 19
a 362 96
a 362 20
a 362 236
a 362 237
a 362 97
a 362 108
a 362 98
a 362 320
a 362 143
a 362 240
a 362 21
a 362 128
a 362 164
a 362 251
a 362 252
a 362 253
a 362 255
a 362 256
a 362 460
a 362 314
a 362 315
a 362 316
a 362 7
a 362 8
a 362 148
a 362 10
a 362 228
a 362 155
a 362 16
a 362 127
a 362 24
a 362 322
a 362 361
a 362 25
a 362 257
a 362 258
a 362 259
a 362 260
a 362 261
a 362 262
a 362 263
a 362 264
a 362 406
a 362 265
a 362 266
a 362 363
a 362 324
a 362 271
a 362 110
a 362 274
a 362 366
a 362 30
a 362 167
a 362 278
a 362 279
a 362 282
a 362 283
a 362 415
a 362 32
a 362 34
a 362 287
a 362 288
a 362 290
a 362 467
a 362 292
a 362 296
a 362 425
a 362 37
a 362 38
a 362 394
a 362 39
a 362 41
a 362 113
a 362 42
a 362 43
a 362 44
a 362 46
a 362 114
a 362 47
a 362 48
a 362 49
a 362 50
a 362 51
a 362 52
a 362 53
a 362 54
a 362 55
a 362 181
a 362 56
a 362 57
a 362 58
a 362 59
a 362 60
a 362 61
a 362 62
a 362 63
a 362 185
a 362 407
a 362 267
a 362 27
a 362 269
a 362 408
a 362 270
a 362 272
a 362 28
a 362 29
a 362 273
a 362 464
a 362 275
a 362 367
a 362 168
a 362 31
a 362 169
a 362 277
a 362 325
a 362 409
a 362 327
a 362 368
a 362 329
a 362 369
a 362 411
a 362 384
a 362 413
a 362 414
a 362 280
a 362 281
a 362 330
a 362 284
a 362 170
a 362 285
a 362 466
a 362 286
a 362 289
a 362 331
a 362 419
a 362 373
a 362 420
a 362 421
a 362 422
a 362 111
a 362 293
a 362 294
a 362 297
a 362 171
a 362 299
a 362 172
a 362 301
a 362 305
a 362 173
a 362 306
a 362 307
a 264 186
a 264 187
a 264 188
a 264 189
a 264 332
a 264 190
a 264 191
a 264 192
a 264 193
a 264 194
a 264 195
a 264 196
a 264 197
a 264 198
a 264 199
a 264 200
a 264 201
a 264 203
a 264 337
a 264 207
a 264 208
a 264 209
a 264 340
a 264 148
a 264 341
a 264 342
a 264 438
a 264 213
a 264 214
a 264 215
a 264 345
a 264 217
a 264 346
a 264 439
a 264 149
a 264 348
a 264 349
a 264 378
a 264 220
a 264 153
a 264 446
a 264 391
a 264 223
a 264 224
a 264 226
a 264 227
a 264 12
a 264 229
a 264 447
a 264 230
a 264 398
a 264 231
a 264 449
a 264 399
a 264 400
a 264 401
a 264 402
a 264 450
a 264 451
a 264 141
a 264 232
a 264 154
a 264 155
a 264 158
a 264 107
a 264 403
a 264 134
a 264 484
a 264 160
a 264 452
a 264 453
a 264 454
a 264 17
a 264 352
a 264 20
a 264 97
a 264 98
a 264 143
a 264 240
a 264 127
a 264 128
a 264 164
a 264 249
a 264 251
a 264 253
a 264 254
a 264 255
a 264 25
a 264 256
a 264 26
a 264 362
a 264 257
a 264 260
a 264 263
a 264 6
a 264 314
a 264 316
a 264 318
a 264 84
a 264 10
a 264 102
a 264 151
a 264 397
a 264 218
a 264 386
a 264 104
a 264 228
a 264 13
a 264 105
a 264 106
a 264 14
a 264 133
a 264 16
a 264 159
a 264 236
a 264 237
a 264 21
a 264 22
a 264 23
a 264 163
a 264 166
a 264 252
a 264 322
a 264 361
a 264 460
a 264 258
a 264 259
a 264 261
a 264 262
a 264 406
a 264 265
a 264 323
a 264 271
a 264 110
a 264 28
a 264 29
a 264 273
a 264 366
a 264 30
a 264 275
a 264 167
a 264 328
a 264 279
a 264 281
a 264 282
a 264 283
a 264 32
a 264 34
a 264 287
a 264 288
a 264 290
a 264 467
a 264 35
a 264 292
a 264 111
a 264 299
a 264 38
a 264 304
a 264 394
a 264 429
a 264 112
a 264 179
a 264 136
a 264 39
a 264 41
a 264 113
a 264 42
a 264 43
a 264 44
a 264 46
a 264 114
a 264 47
a 264 48
a 264 49
a 264 115
a 264 50
a 264 51
a 264 52
a 264 53
a 264 54
a 264 55
a 264 181
a 264 56
a 264 57
a 264 58
a 264 59
a 264 60
a 264 99
a 264 183
a 264 61
a 264 62
a 264 184
a 264 63
a 264 185
a 264 266
a 264 461
a 264 129
a 264 324
a 264 364
a 264 365
a 264 407
a 264 267
a 264 268
a 264 27
a 264 269
a 264 408
a 264 462
a 264 270
a 264 272
a 264 130
a 264 463
a 264 274
a 264 464
a 264 367
a 264 276
a 264 168
a 264 31
a 264 169
a 264 277
a 264 325
a 264 409
a 264 410
a 264 326
a 264 327
a 264 278
a 264 368
a 264 329
a 264 411
a 264 384
a 264 412
a 264 413
a 264 414
a 264 370
a 264 280
a 264 330
a 264 371
a 264 415
a 264 33
a 264 284
a 264 416
a 264 417
a 264 418
a 264 170
a 264 393
a 264 465
a 264 285
a 264 466
a 264 372
a 264 286
a 264 289
a 264 331
a 264 419
a 264 373
a 264 420
a 264 421
a 264 422
a 264 468
a 264 469
a 264 423
a 264 291
a 264 424
a 264 293
a 264 294
a 264 295
a 264 296
a 264 297
a 264 425
a 264 37
a 264 171
a 264 298
a 264 426
a 264 300
a 264 172
a 264 301
a 264 302
a 264 303
a 264 471
a 264 472
a 264 305
a 264 173
a 264 306
a 264 307
a 264 427
a 264 144
a 264 374
a 264 174
a 264 428
a 264 176
a 264 430
a 264 308
a 264 473
a 264 135
a 264 177
a 264 474
a 264 475
a 264 432
a 264 433
a 264 309
a 264 40
a 364 186
a 364 187
a 364 188
a 364 189
a 364 332
a 364 190
a 364 191
a 364 192
a 364 193
a 364 194
a 364 195
a 364 196
a 364 333
a 364 197
a 364 198
a 364 199
a 364 200
a 364 334
a 364 201
a 364 202
a 364 336
a 364 203
a 364 204
a 364 206
a 364 207
a 364 208
a 364 209
a 364 148
a 364 395
a 364 342
a 364 438
a 364 212
a 364 213
a 364 214
a 364 215
a 364 345
a 364 226
a 364 227
a 364 255
a 364 26
a 364 318
a 364 7
a 364 10
a 364 104
a 364 228
a 364 107
a 364 16
a 364 17
a 364 20
a 364 236
a 364 108
a 364 240
a 364 21
a 364 22
a 364 127
a 364 128
a 364 251
a 364 253
a 364 25
a 364 256
a 364 460
a 364 257
a 364 259
a 364 260
a 364 263
a 364 264
a 364 265
a 364 266
a 364 323
a 364 461
a 364 365
a 364 271
a 364 272
a 364 110
a 364 28
a 364 273
a 364 274
a 364 366
a 364 167
a 364 368
a 364 279
a 364 371
a 364 34
a 364 331
a 364 394
a 364 41
a 364 113
a 364 42
a 364 43
a 364 44
a 364 46
a 364 114
a 364 47
a 364 48
a 364 49
a 364 115
a 364 50
a 364 51
a 364 52
a 364 53
a 364 54
a 364 55
a 364 181
a 364 56
a 364 57
a 364 58
a 364 59
a 364 60
a 364 61
a 364 62
a 364 63
a 364 185
a 364 30
a 364 31
a 364 298
a 364 302
a 364 303
a 364 472
a 364 305
a 364 173
a 365 186
a 365 187
a 365 188
a 365 189
a 365 332
a 365 190
a 365 191
a 365 192
a 365 193
a 365 194
a 365 195
a 365 196
a 365 333
a 365 197
a 365 199
a 365 200
a 365 334
a 365 201
a 365 202
a 365 203
a 365 204
a 365 206
a 365 207
a 365 208
a 365 209
a 365 340
a 365 148
a 365 341
a 365 395
a 365 342
a 365 438
a 365 210
a 365 212
a 365 213
a 365 343
a 365 214
a 365 215
a 365 345
a 365 226
a 365 227
a 365 255
a 365 364
a 365 7
a 365 10
a 365 102
a 365 104
a 365 232
a 365 106
a 365 107
a 365 16
a 365 17
a 365 20
a 365 108
a 365 240
a 365 21
a 365 22
a 365 127
a 365 128
a 365 251
a 365 253
a 365 25
a 365 256
a 365 26
a 365 460
a 365 257
a 365 259
a 365 260
a 365 261
a 365 263
a 365 264
a 365 266
a 365 323
a 365 363
a 365 271
a 365 110
a 365 28
a 365 274
a 365 366
a 365 275
a 365 168
a 365 169
a 365 368
a 365 279
a 365 329
a 365 281
a 365 282
a 365 371
a 365 283
a 365 34
a 365 289
a 365 331
a 365 292
a 365 470
a 365 37
a 365 394
a 365 112
a 365 41
a 365 113
a 365 42
a 365 43
a 365 44
a 365 46
a 365 114
a 365 47
a 365 48
a 365 49
a 365 115
a 365 50
a 365 51
a 365 52
a 365 53
a 365 54
a 365 55
a 365 181
a 365 56
a 365 57
a 365 58
a 365 59
a 365 60
a 365 99
a 365 61
a 365 62
a 365 63
a 365 185
a 365 298
a 365 426
a 365 299
a 365 38
a 365 302
a 365 303
a 365 472
a 365 305
a 365 173
a 365 310
a 407 186
a 407 187
a 407 188
a 407 189
a 407 332
a 407 190
a 407 191
a 407 192
a 407 193
a 407 194
a 407 195
a 407 196
a 407 333
a 407 197
a 407 198
a 407 199
a 407 200
a 407 334
a 407 201
a 407 202
a 407 203
a 407 204
a 407 206
a 407 337
a 407 207
a 407 208
a 407 209
a 407 340
a 407 148
a 407 341
a 407 395
a 407 342
a 407 438
a 407 210
a 407 212
a 407 213
a 407 343
a 407 214
a 407 215
a 407 345
a 407 346
a 407 226
a 407 227
a 407 256
a 407 316
a 407 318
a 407 84
a 407 10
a 407 102
a 407 441
a 407 104
a 407 228
a 407 12
a 407 13
a 407 105
a 407 232
a 407 106
a 407 107
a 407 133
a 407 16
a 407 17
a 407 20
a 407 236
a 407 108
a 407 240
a 407 21
a 407 242
a 407 22
a 407 127
a 407 128
a 407 23
a 407 164
a 407 251
a 407 252
a 407 253
a 407 254
a 407 255
a 407 361
a 407 25
a 407 26
a 407 460
a 407 362
a 407 257
a 407 260
a 407 263
a 407 264
a 407 406
a 407 265
a 407 266
a 407 323
a 407 363
a 407 27
a 407 271
a 407 110
a 407 273
a 407 274
a 407 366
a 407 30
a 407 275
a 407 167
a 407 168
a 407 368
a 407 279
a 407 411
a 407 281
a 407 282
a 407 330
a 407 371
a 407 283
a 407 415
a 407 32
a 407 34
a 407 285
a 407 287
a 407 288
a 407 289
a 407 290
a 407 331
a 407 467
a 407 419
a 407 373
a 407 422
a 407 292
a 407 111
a 407 38
a 407 427
a 407 394
a 407 174
a 407 429
a 407 112
a 407 135
a 407 136
a 407 309
a 407 41
a 407 113
a 407 42
a 407 43
a 407 44
a 407 46
a 407 114
a 407 47
a 407 48
a 407 49
a 407 115
a 407 50
a 407 51
a 407 52
a 407 53
a 407 54
a 407 55
a 407 181
a 407 56
a 407 57
a 407 58
a 407 59
a 407 60
a 407 99
a 407 183
a 407 61
a 407 62
a 407 63
a 407 185
a 407 269
a 407 31
a 407 277
a 407 420
a 407 421
a 407 423
a 407 171
a 407 298
a 407 299
a 407 302
a 407 303
a 407 472
a 407 305
a 407 173
a 268 186
a 268 187
a 268 188
a 268 189
a 268 332
a 268 190
a 268 191
a 268 192
a 268 193
a 268 194
a 268 195
a 268 196
a 268 333
a 268 197
a 268 198
a 268 199
a 268 200
a 268 334
a 268 201
a 268 202
a 268 335
a 268 336
a 268 203
a 268 204
a 268 206
a 268 337
a 268 207
a 268 208
a 268 209
a 268 340
a 268 148
a 268 341
a 268 9
a 268 395
a 268 342
a 268 438
a 268 210
a 268 212
a 268 213
a 268 214
a 268 215
a 268 345
a 268 223
a 268 226
a 268 227
a 268 255
a 268 256
a 268 26
a 268 119
a 268 6
a 268 7
a 268 64
a 268 65
a 268 66
a 268 84
a 268 138
a 268 10
a 268 102
a 268 151
a 268 378
a 268 220
a 268 221
a 268 104
a 268 222
a 268 225
a 268 381
a 268 12
a 268 13
a 268 450
a 268 141
a 268 105
a 268 232
a 268 233
a 268 106
a 268 158
a 268 107
a 268 14
a 268 133
a 268 134
a 268 16
a 268 159
a 268 17
a 268 18
a 268 96
a 268 236
a 268 108
a 268 240
a 268 21
a 268 22
a 268 127
a 268 128
a 268 23
a 268 164
a 268 244
a 268 251
a 268 252
a 268 253
a 268 24
a 268 254
a 268 361
a 268 25
a 268 479
a 268 460
a 268 257
a 268 258
a 268 259
a 268 260
a 268 261
a 268 262
a 268 263
a 268 264
a 268 265
a 268 266
a 268 323
a 268 267
a 268 270
a 268 271
a 268 272
a 268 110
a 268 28
a 268 29
a 268 273
a 268 274
a 268 366
a 268 30
a 268 167
a 268 326
a 268 328
a 268 368
a 268 279
a 268 281
a 268 282
a 268 371
a 268 283
a 268 32
a 268 33
a 268 34
a 268 285
a 268 288
a 268 289
a 268 331
a 268 111
a 268 38
a 268 394
a 268 174
a 268 429
a 268 112
a 268 175
a 268 176
a 268 135
a 268 177
a 268 179
a 268 136
a 268 41
a 268 113
a 268 42
a 268 43
a 268 44
a 268 45
a 268 46
a 268 114
a 268 47
a 268 48
a 268 49
a 268 115
a 268 50
a 268 51
a 268 52
a 268 53
a 268 54
a 268 55
a 268 181
a 268 56
a 268 57
a 268 58
a 268 59
a 268 60
a 268 99
a 268 183
a 268 61
a 268 62
a 268 184
a 268 63
a 268 185
a 268 269
a 268 31
a 268 298
a 268 299
a 268 302
a 268 303
a 268 472
a 268 305
a 268 173
a 408 186
a 408 187
a 408 188
a 408 189
a 408 332
a 408 190
a 408 191
a 408 192
a 408 193
a 408 194
a 408 195
a 408 196
a 408 333
a 408 197
a 408 198
a 408 199
a 408 200
a 408 334
a 408 201
a 408 202
a 408 336
a 408 203
a 408 204
a 408 205
a 408 206
a 408 337
a 408 207
a 408 208
a 408 209
a 408 339
a 408 340
a 408 395
a 408 438
a 408 214
a 408 344
a 408 345
a 408 255
a 408 267
a 408 318
a 408 148
a 408 84
a 408 10
a 408 102
a 408 378
a 408 104
a 408 450
a 408 232
a 408 233
a 408 154
a 408 106
a 408 107
a 408 16
a 408 17
a 408 108
a 408 240
a 408 21
a 408 22
a 408 127
a 408 128
a 408 23
a 408 164
a 408 251
a 408 253
a 408 25
a 408 479
a 408 256
a 408 460
a 408 362
a 408 258
a 408 259
a 408 260
a 408 261
a 408 263
a 408 264
a 408 266
a 408 323
a 408 271
a 408 110
a 408 28
a 408 29
a 408 273
a 408 274
a 408 366
a 408 30
a 408 275
a 408 167
a 408 276
a 408 277
a 408 326
a 408 368
a 408 279
a 408 282
a 408 330
a 408 371
a 408 283
a 408 34
a 408 285
a 408 287
a 408 288
a 408 289
a 408 290
a 408 331
a 408 111
a 408 294
a 408 38
a 408 301
a 408 394
a 408 112
a 408 41
a 408 113
a 408 42
a 408 43
a 408 44
a 408 46
a 408 114
a 408 47
a 408 48
a 408 49
a 408 115
a 408 50
a 408 51
a 408 52
a 408 53
a 408 54
a 408 55
a 408 181
a 408 56
a 408 57
a 408 58
a 408 59
a 408 60
a 408 99
a 408 61
a 408 62
a 408 63
a 408 185
a 408 302
a 408 303
a 462 186
a 462 187
a 462 188
a 462 189
a 462 332
a 462 190
a 462 191
a 462 192
a 462 193
a 462 194
a 462 195
a 462 196
a 462 197
a 462 199
a 462 200
a 462 334
a 462 201
a 462 202
a 462 336
a 462 203
a 462 204
a 462 206
a 462 337
a 462 207
a 462 208
a 462 209
a 462 340
a 462 395
a 462 438
a 462 214
a 462 344
a 462 255
a 462 25
a 462 256
a 462 26
a 462 269
a 462 318
a 462 148
a 462 10
a 462 102
a 462 104
a 462 233
a 462 106
a 462 107
a 462 16
a 462 17
a 462 108
a 462 240
a 462 21
a 462 22
a 462 127
a 462 128
a 462 164
a 462 253
a 462 479
a 462 460
a 462 260
a 462 261
a 462 263
a 462 264
a 462 266
a 462 323
a 462 267
a 462 271
a 462 110
a 462 29
a 462 273
a 462 274
a 462 366
a 462 30
a 462 167
a 462 168
a 462 31
a 462 368
a 462 279
a 462 282
a 462 371
a 462 34
a 462 285
a 462 289
a 462 331
a 462 294
a 462 296
a 462 297
a 462 172
a 462 301
a 462 394
a 462 41
a 462 113
a 462 42
a 462 43
a 462 44
a 462 46
a 462 114
a 462 47
a 462 48
a 462 49
a 462 115
a 462 50
a 462 51
a 462 52
a 462 53
a 462 54
a 462 55
a 462 181
a 462 56
a 462 57
a 462 58
a 462 59
a 462 60
a 462 99
a 462 61
a 462 62
a 462 63
a 462 185
a 464 186
a 464 193
a 464 197
a 464 340
a 464 148
a 464 439
a 464 256
a 464 26
a 464 272
a 464 30
a 464 10
a 464 11
a 464 446
a 464 391
a 464 104
a 464 13
a 464 107
a 464 16
a 464 17
a 464 20
a 464 236
a 464 108
a 464 240
a 464 21
a 464 22
a 464 127
a 464 128
a 464 164
a 464 251
a 464 252
a 464 253
a 464 255
a 464 361
a 464 25
a 464 460
a 464 362
a 464 259
a 464 263
a 464 264
a 464 406
a 464 265
a 464 266
a 464 271
a 464 110
a 464 273
a 464 274
a 464 366
a 464 168
a 464 31
a 464 279
a 464 282
a 464 283
a 464 415
a 464 33
a 464 34
a 464 285
a 464 331
a 464 291
a 464 111
a 464 37
a 464 299
a 464 38
a 464 394
a 464 309
a 464 41
a 464 113
a 464 42
a 464 43
a 464 44
a 464 46
a 464 114
a 464 47
a 464 48
a 464 49
a 464 50
a 464 51
a 464 52
a 464 53
a 464 54
a 464 55
a 464 181
a 464 56
a 464 57
a 464 58
a 464 59
a 464 60
a 464 61
a 464 62
a 464 63
a 464 185
a 464 169
a 464 277
a 464 327
a 464 328
a 464 289
a 464 298
a 464 426
a 464 302
a 464 304
a 464 115
a 285 186
a 285 187
a 285 188
a 285 189
a 285 332
a 285 190
a 285 191
a 285 192
a 285 193
a 285 194
a 285 195
a 285 196
a 285 333
a 285 197
a 285 198
a 285 199
a 285 200
a 285 334
a 285 201
a 285 202
a 285 203
a 285 204
a 285 206
a 285 337
a 285 207
a 285 208
a 285 209
a 285 339
a 285 340
a 285 148
a 285 341
a 285 395
a 285 342
a 285 438
a 285 210
a 285 211
a 285 212
a 285 213
a 285 343
a 285 214
a 285 215
a 285 345
a 285 346
a 285 439
a 285 66
a 285 382
a 285 122
a 285 123
a 285 67
a 285 124
a 285 68
a 285 125
a 285 69
a 285 70
a 285 72
a 285 383
a 285 73
a 285 126
a 285 440
a 285 95
a 285 226
a 285 227
a 285 402
a 285 451
a 285 17
a 285 18
a 285 19
a 285 20
a 285 236
a 285 237
a 285 97
a 285 108
a 285 320
a 285 128
a 285 256
a 285 26
a 285 407
a 285 268
a 285 27
a 285 269
a 285 408
a 285 462
a 285 270
a 285 271
a 285 272
a 285 110
a 285 273
a 285 464
a 285 275
a 285 167
a 285 168
a 285 31
a 285 277
a 285 327
a 285 328
a 285 278
a 285 279
a 285 384
a 285 412
a 285 280
a 285 281
a 285 330
a 285 283
a 285 415
a 285 32
a 285 34
a 285 416
a 285 393
a 285 465
a 285 119
a 285 147
a 285 6
a 285 318
a 285 8
a 285 149
a 285 64
a 285 65
a 285 84
a 285 138
a 285 10
a 285 102
a 285 150
a 285 151
a 285 397
a 285 441
a 285 378
a 285 220
a 285 386
a 285 104
a 285 228
a 285 12
a 285 13
a 285 141
a 285 105
a 285 232
a 285 233
a 285 154
a 285 106
a 285 157
a 285 158
a 285 107
a 285 14
a 285 15
a 285 133
a 285 134
a 285 16
a 285 159
a 285 160
a 285 319
a 285 96
a 285 240
a 285 21
a 285 242
a 285 22
a 285 127
a 285 23
a 285 161
a 285 162
a 285 164
a 285 251
a 285 252
a 285 253
a 285 254
a 285 255
a 285 25
a 285 460
a 285 362
a 285 257
a 285 258
a 285 259
a 285 260
a 285 261
a 285 263
a 285 264
a 285 406
a 285 265
a 285 266
a 285 323
a 285 363
a 285 461
a 285 28
a 285 29
a 285 274
a 285 366
a 285 30
a 285 276
a 285 325
a 285 368
a 285 329
a 285 282
a 285 371
a 285 33
a 285 372
a 285 287
a 285 288
a 285 289
a 285 290
a 285 331
a 285 419
a 285 373
a 285 422
a 285 35
a 285 291
a 285 292
a 285 111
a 285 294
a 285 296
a 285 297
a 285 37
a 285 171
a 285 299
a 285 38
a 285 172
a 285 301
a 285 307
a 285 427
a 285 394
a 285 174
a 285 429
a 285 112
a 285 175
a 285 176
a 285 135
a 285 177
a 285 178
a 285 179
a 285 136
a 285 309
a 285 40
a 285 41
a 285 113
a 285 42
a 285 43
a 285 44
a 285 45
a 285 46
a 285 114
a 285 47
a 285 48
a 285 49
a 285 115
a 285 50
a 285 51
a 285 52
a 285 53
a 285 54
a 285 55
a 285 181
a 285 56
a 285 57
a 285 58
a 285 59
a 285 60
a 285 99
a 285 183
a 285 61
a 285 62
a 285 184
a 285 63
a 285 185
a 285 420
a 285 421
a 285 468
a 285 423
a 285 298
a 285 426
a 285 302
a 285 303
a 285 304
a 285 472
a 285 305
a 285 173
a 285 428
a 285 312
a 372 186
a 372 187
a 372 188
a 372 189
a 372 332
a 372 190
a 372 191
a 372 192
a 372 193
a 372 194
a 372 195
a 372 196
a 372 333
a 372 197
a 372 198
a 372 199
a 372 200
a 372 201
a 372 203
a 372 206
a 372 207
a 372 208
a 372 209
a 372 340
a 372 148
a 372 341
a 372 214
a 372 98
a 372 255
a 372 270
a 372 275
a 372 281
a 372 32
a 372 285
a 372 132
a 372 318
a 372 7
a 372 8
a 372 64
a 372 84
a 372 10
a 372 101
a 372 102
a 372 441
a 372 378
a 372 139
a 372 220
a 372 104
a 372 225
a 372 381
a 372 12
a 372 141
a 372 105
a 372 232
a 372 233
a 372 155
a 372 106
a 372 107
a 372 16
a 372 17
a 372 319
a 372 20
a 372 236
a 372 240
a 372 21
a 372 242
a 372 22
a 372 127
a 372 128
a 372 23
a 372 164
a 372 251
a 372 253
a 372 25
a 372 256
a 372 26
a 372 460
a 372 260
a 372 263
a 372 264
a 372 406
a 372 265
a 372 266
a 372 323
a 372 363
a 372 461
a 372 324
a 372 27
a 372 271
a 372 110
a 372 28
a 372 29
a 372 273
a 372 274
a 372 366
a 372 30
a 372 167
a 372 168
a 372 277
a 372 325
a 372 326
a 372 368
a 372 279
a 372 282
a 372 330
a 372 283
a 372 415
a 372 34
a 372 286
a 372 287
a 372 288
a 372 289
a 372 290
a 372 373
a 372 422
a 372 292
a 372 111
a 372 294
a 372 296
a 372 297
a 372 172
a 372 301
a 372 307
a 372 427
a 372 394
a 372 174
a 372 429
a 372 112
a 372 135
a 372 39
a 372 309
a 372 41
a 372 113
a 372 42
a 372 43
a 372 44
a 372 46
a 372 114
a 372 47
a 372 48
a 372 49
a 372 115
a 372 50
a 372 51
a 372 52
a 372 53
a 372 54
a 372 55
a 372 181
a 372 56
a 372 57
a 372 58
a 372 59
a 372 60
a 372 99
a 372 183
a 372 61
a 372 62
a 372 63
a 372 185
a 372 420
a 372 38
a 372 302
a 372 144
a 372 436
a 372 184
a 423 186
a 423 187
a 423 188
a 423 189
a 423 332
a 423 190
a 423 191
a 423 192
a 423 193
a 423 194
a 423 195
a 423 196
a 423 333
a 423 197
a 423 198
a 423 199
a 423 200
a 423 201
a 423 206
a 423 207
a 423 209
a 423 340
a 423 148
a 423 341
a 423 227
a 423 31
a 423 318
a 423 84
a 423 10
a 423 102
a 423 151
a 423 397
a 423 441
a 423 378
a 423 104
a 423 222
a 423 12
a 423 13
a 423 401
a 423 155
a 423 106
a 423 107
a 423 16
a 423 17
a 423 20
a 423 236
a 423 240
a 423 21
a 423 242
a 423 127
a 423 128
a 423 23
a 423 164
a 423 251
a 423 253
a 423 254
a 423 360
a 423 255
a 423 256
a 423 26
a 423 460
a 423 263
a 423 264
a 423 406
a 423 265
a 423 266
a 423 323
a 423 363
a 423 129
a 423 407
a 423 27
a 423 271
a 423 110
a 423 273
a 423 274
a 423 366
a 423 30
a 423 275
a 423 167
a 423 168
a 423 279
a 423 329
a 423 280
a 423 281
a 423 282
a 423 330
a 423 283
a 423 415
a 423 32
a 423 34
a 423 393
a 423 285
a 423 287
a 423 288
a 423 289
a 423 290
a 423 373
a 423 421
a 423 422
a 423 291
a 423 292
a 423 111
a 423 297
a 423 171
a 423 307
a 423 427
a 423 394
a 423 174
a 423 39
a 423 309
a 423 41
a 423 113
a 423 42
a 423 43
a 423 44
a 423 46
a 423 114
a 423 47
a 423 48
a 423 49
a 423 50
a 423 51
a 423 52
a 423 53
a 423 54
a 423 55
a 423 181
a 423 56
a 423 57
a 423 58
a 423 59
a 423 60
a 423 99
a 423 183
a 423 61
a 423 396
a 423 62
a 423 63
a 423 185
a 423 298
a 423 299
a 423 303
a 423 472
a 423 305
a 423 173
a 427 186
a 427 187
a 427 188
a 427 189
a 427 332
a 427 190
a 427 191
a 427 192
a 427 193
a 427 194
a 427 195
a 427 196
a 427 333
a 427 197
a 427 198
a 427 199
a 427 200
a 427 334
a 427 201
a 427 202
a 427 203
a 427 204
a 427 206
a 427 337
a 427 207
a 427 208
a 427 209
a 427 340
a 427 148
a 427 341
a 427 395
a 427 342
a 427 438
a 427 210
a 427 212
a 427 213
a 427 343
a 427 214
a 427 215
a 427 345
a 427 346
a 427 227
a 427 402
a 427 356
a 427 255
a 427 256
a 427 26
a 427 323
a 427 324
a 427 407
a 427 27
a 427 269
a 427 110
a 427 273
a 427 30
a 427 275
a 427 167
a 427 277
a 427 279
a 427 280
a 427 281
a 427 330
a 427 283
a 427 415
a 427 32
a 427 393
a 427 465
a 427 285
a 427 372
a 427 290
a 427 373
a 427 420
a 427 421
a 427 422
a 427 468
a 427 423
a 427 291
a 427 294
a 427 171
a 427 38
a 427 302
a 427 303
a 427 305
a 427 307
a 427 316
a 427 84
a 427 10
a 427 102
a 427 220
a 427 104
a 427 448
a 427 105
a 427 232
a 427 154
a 427 155
a 427 106
a 427 157
a 427 107
a 427 14
a 427 133
a 427 134
a 427 16
a 427 159
a 427 236
a 427 240
a 427 21
a 427 22
a 427 127
a 427 128
a 427 164
a 427 247
a 427 251
a 427 252
a 427 253
a 427 460
a 427 257
a 427 261
a 427 263
a 427 264
a 427 406
a 427 265
a 427 266
a 427 363
a 427 271
a 427 272
a 427 28
a 427 29
a 427 274
a 427 282
a 427 33
a 427 34
a 427 286
a 427 287
a 427 288
a 427 289
a 427 419
a 427 292
a 427 111
a 427 295
a 427 296
a 427 297
a 427 304
a 427 394
a 427 174
a 427 429
a 427 112
a 427 135
a 427 179
a 427 136
a 427 309
a 427 40
a 427 41
a 427 113
a 427 42
a 427 43
a 427 44
a 427 46
a 427 114
a 427 47
a 427 48
a 427 49
a 427 115
a 427 50
a 427 51
a 427 52
a 427 53
a 427 54
a 427 55
a 427 181
a 427 56
a 427 57
a 427 58
a 427 59
a 427 60
a 427 99
a 427 61
a 427 62
a 427 184
a 427 63
a 427 185
a 427 428
a 427 308
a 376 186
a 376 187
a 376 188
a 376 189
a 376 332
a 376 190
a 376 191
a 376 192
a 376 193
a 376 194
a 376 196
a 376 333
a 376 197
a 376 198
a 376 199
a 376 200
a 376 201
a 376 203
a 376 206
a 376 207
a 376 340
a 376 148
a 376 341
a 376 214
a 376 227
a 376 269
a 376 31
a 376 298
a 376 302
a 376 303
a 376 472
a 376 305
a 376 173
a 376 318
a 376 7
a 376 10
a 376 91
a 376 218
a 376 377
a 376 103
a 376 228
a 376 12
a 376 233
a 376 107
a 376 16
a 376 17
a 376 236
a 376 21
a 376 127
a 376 128
a 376 253
a 376 25
a 376 28
a 376 328
a 376 34
a 376 394
a 376 41
a 376 113
a 376 42
a 376 43
a 376 44
a 376 46
a 376 114
a 376 47
a 376 48
a 376 49
a 376 50
a 376 51
a 376 52
a 376 53
a 376 54
a 376 55
a 376 181
a 376 56
a 376 57
a 376 58
a 376 59
a 376 60
a 376 61
a 376 62
a 376 63
a 376 185
a 309 186
a 309 187
a 309 188
a 309 189
a 309 332
a 309 190
a 309 191
a 309 192
a 309 194
a 309 195
a 309 196
a 309 333
a 309 197
a 309 198
a 309 199
a 309 200
a 309 334
a 309 201
a 309 203
a 309 204
a 309 205
a 309 207
a 309 208
a 309 209
a 309 339
a 309 340
a 309 148
a 309 9
a 309 395
a 309 210
a 309 212
a 309 213
a 309 214
a 309 344
a 309 345
a 309 346
a 309 149
a 309 134
a 309 17
a 309 98
a 309 143
a 309 21
a 309 128
a 309 255
a 309 407
a 309 27
a 309 272
a 309 110
a 309 463
a 309 28
a 309 273
a 309 30
a 309 464
a 309 167
a 309 168
a 309 31
a 309 169
a 309 277
a 309 325
a 309 328
a 309 279
a 309 284
a 309 416
a 309 417
a 309 170
a 309 393
a 309 465
a 309 285
a 309 372
a 309 288
a 309 290
a 309 373
a 309 420
a 309 421
a 309 422
a 309 468
a 309 469
a 309 423
a 309 292
a 309 111
a 309 294
a 309 297
a 309 425
a 309 171
a 309 298
a 309 299
a 309 38
a 309 303
a 309 471
a 309 472
a 309 305
a 309 173
a 309 307
a 309 427
a 309 144
a 309 374
a 309 174
a 309 112
a 309 175
a 309 375
a 309 176
a 309 430
a 309 135
a 309 136
a 309 6
a 309 138
a 309 10
a 309 151
a 309 220
a 309 104
a 309 225
a 309 381
a 309 12
a 309 13
a 309 141
a 309 142
a 309 105
a 309 232
a 309 106
a 309 107
a 309 133
a 309 16
a 309 96
a 309 352
a 309 236
a 309 240
a 309 22
a 309 127
a 309 164
a 309 251
a 309 25
a 309 256
a 309 460
a 309 259
a 309 263
a 309 264
a 309 265
a 309 271
a 309 274
a 309 366
a 309 34
a 309 287
a 309 419
a 309 35
a 309 291
a 309 394
a 309 177
a 309 40
a 309 41
a 309 113
a 309 42
a 309 43
a 309 44
a 309 46
a 309 114
a 309 47
a 309 48
a 309 49
a 309 115
a 309 50
a 309 51
a 309 52
a 309 53
a 309 54
a 309 55
a 309 181
a 309 56
a 309 57
a 309 58
a 309 59
a 309 60
a 309 99
a 309 61
a 309 62
a 309 63
a 309 182
a 309 116
a 309 396
a 309 313
a 309 476
a 187 131
a 187 147
a 187 6
a 187 7
a 187 148
a 187 347
a 187 84
a 187 138
a 187 10
a 187 102
a 187 377
a 187 441
a 187 378
a 187 11
a 187 139
a 187 220
a 187 153
a 187 104
a 187 222
a 187 379
a 187 223
a 187 224
a 187 225
a 187 227
a 187 380
a 187 381
a 187 12
a 187 398
a 187 401
a 187 233
a 187 154
a 187 156
a 187 158
a 187 107
a 187 16
a 187 17
a 187 18
a 187 96
a 187 20
a 187 240
a 187 21
a 187 241
a 187 242
a 187 22
a 187 127
a 187 128
a 187 23
a 187 164
a 187 244
a 187 245
a 187 354
a 187 246
a 187 355
a 187 356
a 187 247
a 187 248
a 187 249
a 187 250
a 187 166
a 187 359
a 187 321
a 187 251
a 187 252
a 187 253
a 187 24
a 187 254
a 187 255
a 187 25
a 187 256
a 187 362
a 187 263
a 187 264
a 187 265
a 187 364
a 187 365
a 187 407
a 187 267
a 187 268
a 187 27
a 187 269
a 187 408
a 187 462
a 187 270
a 187 271
a 187 28
a 187 29
a 187 273
a 187 30
a 187 275
a 187 277
a 187 410
a 187 329
a 187 281
a 187 330
a 187 32
a 187 34
a 187 285
a 187 372
a 187 288
a 187 422
a 187 468
a 187 423
a 187 35
a 187 291
a 187 292
a 187 111
a 187 294
a 187 36
a 187 171
a 187 38
a 187 427
a 187 112
a 187 135
a 187 39
a 187 376
a 187 309
a 187 41
a 187 113
a 187 42
a 187 43
a 187 44
a 187 46
a 187 114
a 187 47
a 187 48
a 187 49
a 187 115
a 187 50
a 187 51
a 187 53
a 187 54
a 187 55
a 187 181
a 187 56
a 187 57
a 187 58
a 187 59
a 187 60
a 187 99
a 187 61
a 187 62
a 187 184
a 187 63
a 187 185
a 247 187
a 247 188
a 247 190
a 247 191
a 247 192
a 247 193
a 247 194
a 247 195
a 247 333
a 247 197
a 247 198
a 247 199
a 247 200
a 247 334
a 247 201
a 247 337
a 247 207
a 247 208
a 247 339
a 247 9
a 247 395
a 247 438
a 247 215
a 247 128
a 247 6
a 247 318
a 247 7
a 247 148
a 247 10
a 247 102
a 247 104
a 247 107
a 247 16
a 247 17
a 247 240
a 247 21
a 247 127
a 247 164
a 247 165
a 247 359
a 247 253
a 247 24
a 247 255
a 247 25
a 247 460
a 247 257
a 247 258
a 247 259
a 247 260
a 247 261
a 247 262
a 247 263
a 247 406
a 247 265
a 247 110
a 247 28
a 247 167
a 247 279
a 247 32
a 247 34
a 247 291
a 247 292
a 247 394
a 247 39
a 247 41
a 247 113
a 247 42
a 247 43
a 247 44
a 247 46
a 247 114
a 247 47
a 247 48
a 247 49
a 247 115
a 247 50
a 247 51
a 247 52
a 247 53
a 247 54
a 247 55
a 247 181
a 247 56
a 247 57
a 247 58
a 247 59
a 247 60
a 247 99
a 247 61
a 247 62
a 247 63
a 247 185
a 247 26
a 247 267
a 247 271
a 247 275
a 247 280
a 247 33
a 247 284
a 247 416
a 247 418
a 247 286
a 247 287
a 247 288
a 247 289
a 247 290
a 247 419
a 247 111
a 247 294
a 247 295
a 247 296
a 247 297
a 247 37
a 247 171
a 247 38
a 247 301
a 247 427
a 410 187
a 410 188
a 410 189
a 410 332
a 410 190
a 410 191
a 410 192
a 410 193
a 410 194
a 410 195
a 410 196
a 410 333
a 410 197
a 410 198
a 410 199
a 410 200
a 410 334
a 410 201
a 410 202
a 410 203
a 410 204
a 410 207
a 410 208
a 410 209
a 410 339
a 410 340
a 410 148
a 410 341
a 410 395
a 410 342
a 410 438
a 410 210
a 410 212
a 410 213
a 410 343
a 410 214
a 410 215
a 410 345
a 410 68
a 410 440
a 410 151
a 410 218
a 410 442
a 410 221
a 410 12
a 410 233
a 410 234
a 410 134
a 410 21
a 410 242
a 410 485
a 410 254
a 410 318
a 410 84
a 410 10
a 410 102
a 410 104
a 410 13
a 410 105
a 410 106
a 410 107
a 410 16
a 410 17
a 410 240
a 410 128
a 410 23
a 410 251
a 410 253
a 410 255
a 410 256
a 410 26
a 410 460
a 410 263
a 410 264
a 410 265
a 410 266
a 410 323
a 410 271
a 410 274
a 410 366
a 410 30
a 410 275
a 410 167
a 410 168
a 410 326
a 410 279
a 410 282
a 410 283
a 410 34
a 410 466
a 410 288
a 410 289
a 410 111
a 410 307
a 410 394
a 410 112
a 410 41
a 410 113
a 410 42
a 410 43
a 410 44
a 410 46
a 410 114
a 410 47
a 410 48
a 410 49
a 410 115
a 410 50
a 410 51
a 410 52
a 410 53
a 410 54
a 410 55
a 410 181
a 410 56
a 410 57
a 410 58
a 410 59
a 410 60
a 410 99
a 410 61
a 410 62
a 410 63
a 410 185
a 410 280
a 410 302
a 468 187
a 468 340
a 468 148
a 468 341
a 468 10
a 468 102
a 468 151
a 468 378
a 468 104
a 468 12
a 468 13
a 468 155
a 468 107
a 468 16
a 468 17
a 468 96
a 468 20
a 468 236
a 468 240
a 468 21
a 468 242
a 468 127
a 468 128
a 468 23
a 468 164
a 468 252
a 468 253
a 468 254
a 468 255
a 468 25
a 468 256
a 468 26
a 468 460
a 468 263
a 468 264
a 468 406
a 468 265
a 468 266
a 468 363
a 468 271
a 468 272
a 468 110
a 468 273
a 468 274
a 468 366
a 468 30
a 468 275
a 468 167
a 468 279
a 468 280
a 468 281
a 468 282
a 468 330
a 468 32
a 468 33
a 468 34
a 468 285
a 468 287
a 468 288
a 468 289
a 468 290
a 468 422
a 468 292
a 468 294
a 468 296
a 468 297
a 468 37
a 468 171
a 468 38
a 468 427
a 468 394
a 468 174
a 468 39
a 468 309
a 468 41
a 468 113
a 468 42
a 468 44
a 468 46
a 468 114
a 468 47
a 468 48
a 468 49
a 468 50
a 468 52
a 468 53
a 468 54
a 468 55
a 468 181
a 468 56
a 468 57
a 468 58
a 468 59
a 468 60
a 468 99
a 468 183
a 468 61
a 468 396
a 468 62
a 468 63
a 468 185
a 188 131
a 188 119
a 188 147
a 188 6
a 188 7
a 188 148
a 188 347
a 188 64
a 188 65
a 188 66
a 188 84
a 188 138
a 188 10
a 188 102
a 188 150
a 188 377
a 188 441
a 188 378
a 188 11
a 188 139
a 188 220
a 188 153
a 188 221
a 188 104
a 188 222
a 188 379
a 188 223
a 188 224
a 188 225
a 188 227
a 188 380
a 188 381
a 188 12
a 188 398
a 188 401
a 188 402
a 188 105
a 188 233
a 188 154
a 188 106
a 188 156
a 188 158
a 188 107
a 188 15
a 188 133
a 188 134
a 188 16
a 188 159
a 188 17
a 188 18
a 188 319
a 188 96
a 188 235
a 188 20
a 188 240
a 188 21
a 188 241
a 188 242
a 188 22
a 188 127
a 188 128
a 188 23
a 188 161
a 188 162
a 188 164
a 188 244
a 188 245
a 188 354
a 188 246
a 188 355
a 188 356
a 188 247
a 188 248
a 188 249
a 188 250
a 188 166
a 188 359
a 188 321
a 188 251
a 188 252
a 188 253
a 188 24
a 188 254
a 188 255
a 188 25
a 188 256
a 188 362
a 188 263
a 188 264
a 188 265
a 188 364
a 188 365
a 188 407
a 188 267
a 188 268
a 188 27
a 188 269
a 188 408
a 188 462
a 188 270
a 188 271
a 188 28
a 188 29
a 188 273
a 188 30
a 188 275
a 188 277
a 188 410
a 188 326
a 188 329
a 188 281
a 188 330
a 188 32
a 188 34
a 188 285
a 188 372
a 188 288
a 188 331
a 188 422
a 188 423
a 188 35
a 188 291
a 188 292
a 188 111
a 188 294
a 188 36
a 188 37
a 188 171
a 188 38
a 188 173
a 188 307
a 188 427
a 188 174
a 188 112
a 188 175
a 188 176
a 188 135
a 188 177
a 188 179
a 188 136
a 188 39
a 188 376
a 188 309
a 188 41
a 188 113
a 188 42
a 188 43
a 188 44
a 188 45
a 188 46
a 188 114
a 188 47
a 188 48
a 188 49
a 188 115
a 188 50
a 188 51
a 188 53
a 188 54
a 188 55
a 188 181
a 188 56
a 188 57
a 188 58
a 188 59
a 188 60
a 188 99
a 188 183
a 188 61
a 188 62
a 188 184
a 188 63
a 188 185
a 402 188
a 402 189
a 402 190
a 402 191
a 402 192
a 402 193
a 402 194
a 402 195
a 402 196
a 402 333
a 402 197
a 402 198
a 402 199
a 402 200
a 402 201
a 402 202
a 402 203
a 402 207
a 402 209
a 402 216
a 402 401
a 402 148
a 402 84
a 402 10
a 402 102
a 402 151
a 402 349
a 402 378
a 402 219
a 402 220
a 402 446
a 402 391
a 402 104
a 402 222
a 402 225
a 402 228
a 402 381
a 402 12
a 402 13
a 402 399
a 402 451
a 402 105
a 402 232
a 402 106
a 402 107
a 402 14
a 402 133
a 402 16
a 402 20
a 402 236
a 402 240
a 402 21
a 402 22
a 402 127
a 402 128
a 402 23
a 402 164
a 402 251
a 402 253
a 402 255
a 402 256
a 402 259
a 402 260
a 402 263
a 402 264
a 402 406
a 402 265
a 402 266
a 402 323
a 402 363
a 402 27
a 402 271
a 402 110
a 402 28
a 402 29
a 402 273
a 402 274
a 402 366
a 402 30
a 402 275
a 402 167
a 402 168
a 402 326
a 402 279
a 402 282
a 402 330
a 402 283
a 402 32
a 402 34
a 402 285
a 402 288
a 402 289
a 402 290
a 402 422
a 402 291
a 402 292
a 402 111
a 402 38
a 402 427
a 402 112
a 402 136
a 402 40
a 402 41
a 402 113
a 402 42
a 402 43
a 402 44
a 402 46
a 402 114
a 402 47
a 402 48
a 402 49
a 402 115
a 402 50
a 402 51
a 402 52
a 402 53
a 402 54
a 402 55
a 402 181
a 402 56
a 402 57
a 402 58
a 402 59
a 402 60
a 402 99
a 402 183
a 402 61
a 402 62
a 402 63
a 402 185
a 402 25
a 402 26
a 402 270
a 402 302
a 402 305
a 189 131
a 189 119
a 189 147
a 189 6
a 189 7
a 189 148
a 189 347
a 189 64
a 189 65
a 189 66
a 189 84
a 189 138
a 189 10
a 189 102
a 189 150
a 189 378
a 189 11
a 189 139
a 189 220
a 189 153
a 189 104
a 189 222
a 189 379
a 189 223
a 189 224
a 189 225
a 189 380
a 189 381
a 189 12
a 189 398
a 189 401
a 189 402
a 189 105
a 189 233
a 189 154
a 189 106
a 189 158
a 189 107
a 189 15
a 189 133
a 189 134
a 189 16
a 189 159
a 189 17
a 189 18
a 189 96
a 189 20
a 189 240
a 189 21
a 189 241
a 189 242
a 189 22
a 189 127
a 189 128
a 189 23
a 189 164
a 189 244
a 189 245
a 189 354
a 189 246
a 189 355
a 189 356
a 189 248
a 189 249
a 189 250
a 189 166
a 189 359
a 189 321
a 189 251
a 189 252
a 189 253
a 189 24
a 189 254
a 189 255
a 189 25
a 189 256
a 189 362
a 189 263
a 189 264
a 189 265
a 189 364
a 189 365
a 189 407
a 189 267
a 189 268
a 189 27
a 189 269
a 189 408
a 189 462
a 189 270
a 189 271
a 189 28
a 189 29
a 189 273
a 189 30
a 189 275
a 189 277
a 189 410
a 189 326
a 189 329
a 189 281
a 189 330
a 189 32
a 189 34
a 189 285
a 189 372
a 189 288
a 189 331
a 189 422
a 189 423
a 189 35
a 189 291
a 189 292
a 189 111
a 189 294
a 189 36
a 189 171
a 189 38
a 189 173
a 189 307
a 189 427
a 189 174
a 189 112
a 189 175
a 189 176
a 189 135
a 189 177
a 189 179
a 189 136
a 189 39
a 189 376
a 189 309
a 189 41
a 189 113
a 189 42
a 189 43
a 189 44
a 189 46
a 189 114
a 189 47
a 189 48
a 189 49
a 189 115
a 189 50
a 189 51
a 189 53
a 189 54
a 189 55
a 189 181
a 189 56
a 189 57
a 189 58
a 189 59
a 189 60
a 189 99
a 189 183
a 189 61
a 189 62
a 189 184
a 189 63
a 189 185
a 332 119
a 332 147
a 332 7
a 332 148
a 332 347
a 332 64
a 332 65
a 332 66
a 332 84
a 332 138
a 332 10
a 332 102
a 332 377
a 332 441
a 332 378
a 332 11
a 332 139
a 332 220
a 332 104
a 332 222
a 332 379
a 332 223
a 332 224
a 332 225
a 332 227
a 332 381
a 332 12
a 332 398
a 332 401
a 332 105
a 332 233
a 332 154
a 332 106
a 332 156
a 332 158
a 332 107
a 332 133
a 332 134
a 332 16
a 332 159
a 332 17
a 332 18
a 332 319
a 332 96
a 332 20
a 332 240
a 332 21
a 332 241
a 332 242
a 332 22
a 332 127
a 332 128
a 332 23
a 332 164
a 332 244
a 332 245
a 332 354
a 332 246
a 332 355
a 332 356
a 332 248
a 332 249
a 332 250
a 332 166
a 332 359
a 332 321
a 332 251
a 332 252
a 332 253
a 332 24
a 332 254
a 332 255
a 332 25
a 332 256
a 332 362
a 332 263
a 332 264
a 332 265
a 332 364
a 332 365
a 332 407
a 332 268
a 332 27
a 332 269
a 332 408
a 332 462
a 332 270
a 332 271
a 332 28
a 332 29
a 332 273
a 332 30
a 332 275
a 332 277
a 332 410
a 332 329
a 332 281
a 332 330
a 332 32
a 332 34
a 332 285
a 332 372
a 332 288
a 332 422
a 332 423
a 332 291
a 332 292
a 332 111
a 332 294
a 332 36
a 332 37
a 332 171
a 332 38
a 332 307
a 332 427
a 332 112
a 332 175
a 332 176
a 332 135
a 332 177
a 332 179
a 332 136
a 332 39
a 332 376
a 332 309
a 332 41
a 332 113
a 332 42
a 332 43
a 332 44
a 332 46
a 332 114
a 332 47
a 332 48
a 332 49
a 332 115
a 332 50
a 332 51
a 332 53
a 332 54
a 332 55
a 332 181
a 332 56
a 332 57
a 332 58
a 332 59
a 332 60
a 332 99
a 332 183
a 332 61
a 332 62
a 332 184
a 332 63
a 332 185
a 190 131
a 190 119
a 190 147
a 190 6
a 190 7
a 190 148
a 190 347
a 190 64
a 190 65
a 190 66
a 190 84
a 190 138
a 190 10
a 190 102
a 190 377
a 190 441
a 190 378
a 190 11
a 190 220
a 190 153
a 190 104
a 190 379
a 190 223
a 190 224
a 190 225
a 190 226
a 190 227
a 190 380
a 190 381
a 190 12
a 190 398
a 190 401
a 190 402
a 190 105
a 190 233
a 190 154
a 190 106
a 190 158
a 190 107
a 190 133
a 190 134
a 190 16
a 190 159
a 190 17
a 190 96
a 190 20
a 190 240
a 190 21
a 190 241
a 190 242
a 190 22
a 190 127
a 190 128
a 190 23
a 190 164
a 190 244
a 190 245
a 190 354
a 190 246
a 190 355
a 190 356
a 190 247
a 190 248
a 190 249
a 190 250
a 190 166
a 190 359
a 190 321
a 190 252
a 190 253
a 190 24
a 190 254
a 190 255
a 190 25
a 190 256
a 190 263
a 190 264
a 190 265
a 190 364
a 190 365
a 190 407
a 190 267
a 190 268
a 190 27
a 190 269
a 190 408
a 190 462
a 190 270
a 190 271
a 190 110
a 190 28
a 190 29
a 190 273
a 190 30
a 190 275
a 190 277
a 190 410
a 190 326
a 190 329
a 190 281
a 190 330
a 190 32
a 190 34
a 190 285
a 190 372
a 190 288
a 190 422
a 190 423
a 190 35
a 190 291
a 190 292
a 190 111
a 190 294
a 190 36
a 190 171
a 190 38
a 190 307
a 190 427
a 190 174
a 190 112
a 190 175
a 190 135
a 190 177
a 190 179
a 190 136
a 190 39
a 190 376
a 190 309
a 190 41
a 190 113
a 190 42
a 190 43
a 190 44
a 190 46
a 190 114
a 190 47
a 190 48
a 190 49
a 190 115
a 190 50
a 190 51
a 190 53
a 190 54
a 190 55
a 190 181
a 190 56
a 190 57
a 190 58
a 190 59
a 190 60
a 190 99
a 190 61
a 190 62
a 190 184
a 190 63
a 190 185
a 226 190
a 226 191
a 226 192
a 226 193
a 226 194
a 226 195
a 226 196
a 226 333
a 226 197
a 226 198
a 226 199
a 226 200
a 226 334
a 226 201
a 226 202
a 226 203
a 226 204
a 226 207
a 226 208
a 226 209
a 226 9
a 226 211
a 226 345
a 226 6
a 226 318
a 226 148
a 226 10
a 226 102
a 226 221
a 226 104
a 226 222
a 226 379
a 226 223
a 226 224
a 226 225
a 226 227
a 226 381
a 226 12
a 226 233
a 226 16
a 226 96
a 226 236
a 226 240
a 226 21
a 226 242
a 226 22
a 226 128
a 226 164
a 226 354
a 226 359
a 226 251
a 226 253
a 226 254
a 226 255
a 226 25
a 226 263
a 226 264
a 226 364
a 226 365
a 226 407
a 226 267
a 226 268
a 226 269
a 226 271
a 226 110
a 226 28
a 226 29
a 226 273
a 226 275
a 226 167
a 226 413
a 226 32
a 226 34
a 226 285
a 226 291
a 226 38
a 226 394
a 226 41
a 226 113
a 226 42
a 226 43
a 226 44
a 226 46
a 226 114
a 226 47
a 226 49
a 226 115
a 226 50
a 226 51
a 226 52
a 226 53
a 226 54
a 226 55
a 226 181
a 226 56
a 226 57
a 226 58
a 226 59
a 226 60
a 226 99
a 226 61
a 226 62
a 226 63
a 226 303
a 226 173
a 191 147
a 191 6
a 191 7
a 191 148
a 191 10
a 191 102
a 191 377
a 191 378
a 191 104
a 191 379
a 191 223
a 191 224
a 191 225
a 191 226
a 191 227
a 191 380
a 191 381
a 191 12
a 191 398
a 191 401
a 191 402
a 191 233
a 191 154
a 191 17
a 191 96
a 191 20
a 191 240
a 191 21
a 191 241
a 191 242
a 191 22
a 191 127
a 191 128
a 191 23
a 191 164
a 191 244
a 191 245
a 191 354
a 191 246
a 191 355
a 191 356
a 191 247
a 191 248
a 191 249
a 191 250
a 191 166
a 191 359
a 191 321
a 191 252
a 191 24
a 191 254
a 191 255
a 191 25
a 191 256
a 191 362
a 191 263
a 191 264
a 191 265
a 191 364
a 191 365
a 191 407
a 191 267
a 191 268
a 191 27
a 191 269
a 191 408
a 191 462
a 191 270
a 191 271
a 191 110
a 191 28
a 191 273
a 191 30
a 191 275
a 191 277
a 191 410
a 191 326
a 191 329
a 191 281
a 191 330
a 191 32
a 191 285
a 191 372
a 191 288
a 191 422
a 191 423
a 191 35
a 191 291
a 191 292
a 191 294
a 191 36
a 191 171
a 191 38
a 191 307
a 191 427
a 191 39
a 191 376
a 191 309
a 191 41
a 191 113
a 191 42
a 191 43
a 191 44
a 191 46
a 191 114
a 191 48
a 191 49
a 191 115
a 191 50
a 191 51
a 191 53
a 191 54
a 191 55
a 191 56
a 191 57
a 191 58
a 191 59
a 191 60
a 191 99
a 191 61
a 191 62
a 191 63
a 191 185
a 192 131
a 192 147
a 192 6
a 192 7
a 192 347
a 192 377
a 192 378
a 192 11
a 192 153
a 192 221
a 192 104
a 192 379
a 192 223
a 192 224
a 192 225
a 192 226
a 192 227
a 192 380
a 192 381
a 192 12
a 192 398
a 192 401
a 192 402
a 192 233
a 192 154
a 192 158
a 192 107
a 192 17
a 192 18
a 192 96
a 192 20
a 192 240
a 192 21
a 192 241
a 192 242
a 192 22
a 192 127
a 192 128
a 192 23
a 192 164
a 192 244
a 192 245
a 192 354
a 192 246
a 192 355
a 192 356
a 192 247
a 192 248
a 192 249
a 192 250
a 192 166
a 192 359
a 192 321
a 192 252
a 192 253
a 192 24
a 192 254
a 192 360
a 192 322
a 192 255
a 192 25
a 192 256
a 192 362
a 192 263
a 192 264
a 192 265
a 192 364
a 192 365
a 192 407
a 192 267
a 192 268
a 192 27
a 192 269
a 192 408
a 192 462
a 192 270
a 192 271
a 192 110
a 192 273
a 192 30
a 192 275
a 192 277
a 192 410
a 192 326
a 192 327
a 192 281
a 192 282
a 192 330
a 192 283
a 192 32
a 192 285
a 192 372
a 192 288
a 192 331
a 192 422
a 192 423
a 192 35
a 192 291
a 192 292
a 192 294
a 192 171
a 192 38
a 192 307
a 192 427
a 192 174
a 192 39
a 192 376
a 192 309
a 192 41
a 192 42
a 192 43
a 192 44
a 192 49
a 192 115
a 192 51
a 192 53
a 192 56
a 192 58
a 192 60
a 360 192
a 360 148
a 360 438
a 360 215
a 360 246
a 360 166
a 360 314
a 360 316
a 360 318
a 360 7
a 360 8
a 360 10
a 360 101
a 360 102
a 360 151
a 360 397
a 360 104
a 360 228
a 360 141
a 360 154
a 360 155
a 360 107
a 360 16
a 360 17
a 360 319
a 360 96
a 360 20
a 360 236
a 360 240
a 360 21
a 360 128
a 360 244
a 360 251
a 360 24
a 360 255
a 360 460
a 360 260
a 360 324
a 360 279
a 360 280
a 360 32
a 360 34
a 360 287
a 360 292
a 360 394
a 360 41
a 360 113
a 360 42
a 360 43
a 360 44
a 360 46
a 360 114
a 360 47
a 360 48
a 360 49
a 360 50
a 360 51
a 360 52
a 360 53
a 360 54
a 360 55
a 360 181
a 360 56
a 360 57
a 360 58
a 360 59
a 360 60
a 360 99
a 360 61
a 360 62
a 360 63
a 360 185
a 360 415
a 360 422
a 360 423
a 360 115
a 360 436
a 193 131
a 193 119
a 193 147
a 193 6
a 193 7
a 193 148
a 193 149
a 193 347
a 193 64
a 193 65
a 193 66
a 193 84
a 193 138
a 193 10
a 193 102
a 193 150
a 193 377
a 193 441
a 193 378
a 193 11
a 193 220
a 193 153
a 193 221
a 193 104
a 193 379
a 193 223
a 193 224
a 193 225
a 193 226
a 193 227
a 193 380
a 193 381
a 193 12
a 193 398
a 193 401
a 193 402
a 193 105
a 193 233
a 193 154
a 193 106
a 193 157
a 193 158
a 193 107
a 193 15
a 193 133
a 193 134
a 193 16
a 193 159
a 193 160
a 193 17
a 193 18
a 193 96
a 193 20
a 193 240
a 193 21
a 193 241
a 193 242
a 193 22
a 193 127
a 193 128
a 193 23
a 193 161
a 193 162
a 193 163
a 193 164
a 193 244
a 193 245
a 193 354
a 193 246
a 193 355
a 193 356
a 193 247
a 193 165
a 193 248
a 193 249
a 193 250
a 193 166
a 193 359
a 193 321
a 193 251
a 193 252
a 193 253
a 193 24
a 193 254
a 193 255
a 193 25
a 193 256
a 193 362
a 193 263
a 193 264
a 193 406
a 193 265
a 193 364
a 193 365
a 193 407
a 193 267
a 193 268
a 193 27
a 193 269
a 193 408
a 193 462
a 193 270
a 193 271
a 193 110
a 193 28
a 193 29
a 193 273
a 193 30
a 193 464
a 193 275
a 193 277
a 193 410
a 193 326
a 193 329
a 193 281
a 193 330
a 193 32
a 193 34
a 193 170
a 193 285
a 193 372
a 193 288
a 193 331
a 193 422
a 193 423
a 193 35
a 193 291
a 193 292
a 193 111
a 193 294
a 193 36
a 193 171
a 193 38
a 193 173
a 193 307
a 193 427
a 193 174
a 193 112
a 193 175
a 193 176
a 193 135
a 193 177
a 193 178
a 193 179
a 193 136
a 193 39
a 193 376
a 193 41
a 193 113
a 193 42
a 193 43
a 193 44
a 193 180
a 193 46
a 193 114
a 193 47
a 193 48
a 193 49
a 193 115
a 193 50
a 193 51
a 193 52
a 193 53
a 193 54
a 193 55
a 193 181
a 193 56
a 193 57
a 193 58
a 193 59
a 193 60
a 193 99
a 193 183
a 193 61
a 193 62
a 193 184
a 193 63
a 193 185
a 194 131
a 194 119
a 194 147
a 194 6
a 194 7
a 194 148
a 194 347
a 194 64
a 194 84
a 194 138
a 194 10
a 194 102
a 194 378
a 194 11
a 194 220
a 194 153
a 194 104
a 194 379
a 194 223
a 194 224
a 194 225
a 194 226
a 194 227
a 194 380
a 194 381
a 194 12
a 194 398
a 194 401
a 194 402
a 194 105
a 194 233
a 194 154
a 194 106
a 194 158
a 194 107
a 194 133
a 194 16
a 194 17
a 194 18
a 194 96
a 194 20
a 194 240
a 194 21
a 194 241
a 194 242
a 194 22
a 194 127
a 194 128
a 194 23
a 194 164
a 194 244
a 194 245
a 194 354
a 194 246
a 194 355
a 194 356
a 194 247
a 194 248
a 194 249
a 194 250
a 194 166
a 194 359
a 194 321
a 194 251
a 194 252
a 194 253
a 194 24
a 194 254
a 194 255
a 194 25
a 194 256
a 194 362
a 194 263
a 194 264
a 194 406
a 194 265
a 194 364
a 194 365
a 194 407
a 194 267
a 194 268
a 194 27
a 194 269
a 194 408
a 194 462
a 194 270
a 194 271
a 194 110
a 194 28
a 194 29
a 194 273
a 194 30
a 194 275
a 194 277
a 194 410
a 194 326
a 194 329
a 194 281
a 194 330
a 194 32
a 194 34
a 194 285
a 194 372
a 194 288
a 194 422
a 194 423
a 194 35
a 194 291
a 194 292
a 194 111
a 194 294
a 194 36
a 194 171
a 194 38
a 194 307
a 194 427
a 194 174
a 194 112
a 194 135
a 194 136
a 194 39
a 194 376
a 194 309
a 194 41
a 194 113
a 194 42
a 194 43
a 194 44
a 194 46
a 194 114
a 194 47
a 194 48
a 194 49
a 194 115
a 194 50
a 194 51
a 194 53
a 194 54
a 194 55
a 194 181
a 194 56
a 194 57
a 194 58
a 194 59
a 194 60
a 194 99
a 194 61
a 194 62
a 194 184
a 194 63
a 194 185
a 195 131
a 195 147
a 195 6
a 195 7
a 195 148
a 195 347
a 195 10
a 195 102
a 195 220
a 195 104
a 195 379
a 195 223
a 195 224
a 195 225
a 195 226
a 195 227
a 195 380
a 195 381
a 195 12
a 195 401
a 195 402
a 195 233
a 195 154
a 195 17
a 195 18
a 195 96
a 195 20
a 195 240
a 195 21
a 195 241
a 195 242
a 195 22
a 195 128
a 195 164
a 195 244
a 195 245
a 195 354
a 195 246
a 195 355
a 195 356
a 195 247
a 195 248
a 195 249
a 195 250
a 195 166
a 195 359
a 195 321
a 195 252
a 195 253
a 195 24
a 195 254
a 195 255
a 195 25
a 195 256
a 195 362
a 195 263
a 195 264
a 195 265
a 195 364
a 195 365
a 195 407
a 195 267
a 195 268
a 195 27
a 195 269
a 195 408
a 195 462
a 195 270
a 195 271
a 195 110
a 195 28
a 195 273
a 195 30
a 195 275
a 195 277
a 195 410
a 195 326
a 195 329
a 195 281
a 195 330
a 195 32
a 195 34
a 195 285
a 195 372
a 195 288
a 195 422
a 195 423
a 195 35
a 195 291
a 195 292
a 195 294
a 195 36
a 195 171
a 195 38
a 195 427
a 195 39
a 195 309
a 195 41
a 195 113
a 195 42
a 195 43
a 195 44
a 195 46
a 195 114
a 195 48
a 195 49
a 195 115
a 195 50
a 195 51
a 195 53
a 195 54
a 195 55
a 195 56
a 195 57
a 195 58
a 195 59
a 195 60
a 195 99
a 195 61
a 195 62
a 195 63
a 195 185
a 196 131
a 196 119
a 196 147
a 196 6
a 196 7
a 196 148
a 196 149
a 196 347
a 196 64
a 196 65
a 196 66
a 196 84
a 196 138
a 196 10
a 196 102
a 196 150
a 196 377
a 196 378
a 196 11
a 196 139
a 196 220
a 196 153
a 196 221
a 196 104
a 196 379
a 196 223
a 196 224
a 196 225
a 196 226
a 196 227
a 196 380
a 196 381
a 196 12
a 196 398
a 196 401
a 196 402
a 196 105
a 196 233
a 196 154
a 196 106
a 196 157
a 196 158
a 196 107
a 196 15
a 196 133
a 196 134
a 196 16
a 196 159
a 196 160
a 196 17
a 196 18
a 196 319
a 196 96
a 196 20
a 196 240
a 196 21
a 196 241
a 196 242
a 196 22
a 196 127
a 196 128
a 196 23
a 196 161
a 196 162
a 196 164
a 196 244
a 196 245
a 196 354
a 196 246
a 196 355
a 196 356
a 196 248
a 196 249
a 196 250
a 196 166
a 196 359
a 196 321
a 196 251
a 196 252
a 196 253
a 196 24
a 196 254
a 196 255
a 196 25
a 196 256
a 196 362
a 196 263
a 196 264
a 196 406
a 196 265
a 196 364
a 196 365
a 196 407
a 196 267
a 196 268
a 196 27
a 196 269
a 196 408
a 196 462
a 196 270
a 196 271
a 196 110
a 196 28
a 196 29
a 196 273
a 196 30
a 196 275
a 196 277
a 196 410
a 196 326
a 196 329
a 196 281
a 196 330
a 196 32
a 196 34
a 196 285
a 196 372
a 196 288
a 196 331
a 196 422
a 196 423
a 196 35
a 196 291
a 196 292
a 196 111
a 196 294
a 196 36
a 196 171
a 196 38
a 196 173
a 196 307
a 196 427
a 196 174
a 196 112
a 196 175
a 196 176
a 196 135
a 196 177
a 196 178
a 196 179
a 196 136
a 196 39
a 196 376
a 196 309
a 196 41
a 196 113
a 196 42
a 196 43
a 196 44
a 196 46
a 196 114
a 196 47
a 196 48
a 196 49
a 196 115
a 196 50
a 196 51
a 196 52
a 196 53
a 196 54
a 196 55
a 196 181
a 196 56
a 196 57
a 196 58
a 196 59
a 196 60
a 196 99
a 196 183
a 196 61
a 196 62
a 196 184
a 196 63
a 196 185
a 333 7
a 333 148
a 333 10
a 333 379
a 333 223
a 333 224
a 333 225
a 333 226
a 333 227
a 333 380
a 333 381
a 333 12
a 333 398
a 333 401
a 333 402
a 333 233
a 333 154
a 333 96
a 333 20
a 333 240
a 333 21
a 333 241
a 333 242
a 333 22
a 333 128
a 333 164
a 333 244
a 333 245
a 333 354
a 333 246
a 333 355
a 333 356
a 333 247
a 333 248
a 333 249
a 333 250
a 333 166
a 333 359
a 333 321
a 333 252
a 333 253
a 333 24
a 333 254
a 333 255
a 333 25
a 333 256
a 333 362
a 333 263
a 333 265
a 333 364
a 333 365
a 333 407
a 333 267
a 333 268
a 333 27
a 333 269
a 333 408
a 333 270
a 333 271
a 333 110
a 333 28
a 333 273
a 333 30
a 333 275
a 333 277
a 333 410
a 333 326
a 333 281
a 333 330
a 333 32
a 333 285
a 333 372
a 333 288
a 333 422
a 333 423
a 333 35
a 333 291
a 333 292
a 333 294
a 333 171
a 333 427
a 333 39
a 333 376
a 333 309
a 333 41
a 333 42
a 333 43
a 333 44
a 333 46
a 333 114
a 333 48
a 333 49
a 333 115
a 333 50
a 333 53
a 333 54
a 333 56
a 333 57
a 333 58
a 333 59
a 333 60
a 333 61
a 333 62
a 333 63
a 197 131
a 197 119
a 197 147
a 197 6
a 197 7
a 197 148
a 197 149
a 197 347
a 197 64
a 197 65
a 197 66
a 197 84
a 197 138
a 197 10
a 197 102
a 197 150
a 197 377
a 197 441
a 197 378
a 197 11
a 197 220
a 197 153
a 197 221
a 197 104
a 197 379
a 197 223
a 197 224
a 197 225
a 197 226
a 197 227
a 197 380
a 197 381
a 197 12
a 197 398
a 197 400
a 197 401
a 197 402
a 197 105
a 197 233
a 197 154
a 197 106
a 197 157
a 197 158
a 197 107
a 197 15
a 197 133
a 197 134
a 197 16
a 197 159
a 197 160
a 197 17
a 197 18
a 197 319
a 197 96
a 197 20
a 197 240
a 197 21
a 197 241
a 197 242
a 197 22
a 197 127
a 197 128
a 197 23
a 197 161
a 197 162
a 197 164
a 197 244
a 197 245
a 197 354
a 197 246
a 197 355
a 197 356
a 197 247
a 197 248
a 197 249
a 197 250
a 197 166
a 197 359
a 197 321
a 197 251
a 197 252
a 197 253
a 197 24
a 197 254
a 197 255
a 197 25
a 197 256
a 197 362
a 197 263
a 197 264
a 197 406
a 197 265
a 197 364
a 197 365
a 197 407
a 197 267
a 197 268
a 197 27
a 197 269
a 197 408
a 197 462
a 197 270
a 197 271
a 197 110
a 197 28
a 197 29
a 197 273
a 197 30
a 197 464
a 197 275
a 197 277
a 197 410
a 197 326
a 197 329
a 197 281
a 197 330
a 197 32
a 197 34
a 197 285
a 197 372
a 197 288
a 197 331
a 197 422
a 197 423
a 197 35
a 197 291
a 197 292
a 197 111
a 197 294
a 197 36
a 197 37
a 197 171
a 197 38
a 197 173
a 197 307
a 197 427
a 197 174
a 197 112
a 197 175
a 197 176
a 197 135
a 197 177
a 197 178
a 197 179
a 197 136
a 197 39
a 197 376
a 197 309
a 197 41
a 197 113
a 197 42
a 197 43
a 197 44
a 197 180
a 197 46
a 197 114
a 197 47
a 197 48
a 197 49
a 197 115
a 197 50
a 197 51
a 197 52
a 197 53
a 197 54
a 197 55
a 197 181
a 197 56
a 197 57
a 197 58
a 197 59
a 197 60
a 197 99
a 197 183
a 197 61
a 197 62
a 197 184
a 197 63
a 197 185
a 400 197
a 400 199
a 400 217
a 400 348
a 400 318
a 400 148
a 400 84
a 400 10
a 400 89
a 400 102
a 400 151
a 400 390
a 400 349
a 400 378
a 400 11
a 400 220
a 400 446
a 400 391
a 400 104
a 400 222
a 400 225
a 400 228
a 400 381
a 400 12
a 400 231
a 400 399
a 400 105
a 400 232
a 400 106
a 400 107
a 400 16
a 400 17
a 400 96
a 400 236
a 400 240
a 400 21
a 400 22
a 400 127
a 400 128
a 400 392
a 400 164
a 400 321
a 400 251
a 400 253
a 400 255
a 400 26
a 400 257
a 400 261
a 400 264
a 400 266
a 400 271
a 400 110
a 400 28
a 400 29
a 400 273
a 400 274
a 400 366
a 400 30
a 400 367
a 400 167
a 400 168
a 400 169
a 400 279
a 400 283
a 400 32
a 400 34
a 400 289
a 400 111
a 400 38
a 400 471
a 400 173
a 400 112
a 400 432
a 400 40
a 400 41
a 400 113
a 400 42
a 400 43
a 400 44
a 400 46
a 400 114
a 400 47
a 400 49
a 400 115
a 400 50
a 400 51
a 400 52
a 400 53
a 400 54
a 400 55
a 400 181
a 400 56
a 400 57
a 400 58
a 400 59
a 400 60
a 400 99
a 400 183
a 400 61
a 400 62
a 400 63
a 400 185
a 400 256
a 400 272
a 400 276
a 400 277
a 400 327
a 400 328
a 400 294
a 400 298
a 400 426
a 400 299
a 400 300
a 400 172
a 400 301
a 400 304
a 400 472
a 400 306
a 198 131
a 198 119
a 198 147
a 198 6
a 198 7
a 198 148
a 198 347
a 198 64
a 198 65
a 198 66
a 198 84
a 198 138
a 198 10
a 198 102
a 198 150
a 198 377
a 198 441
a 198 378
a 198 11
a 198 139
a 198 220
a 198 153
a 198 221
a 198 104
a 198 379
a 198 223
a 198 224
a 198 225
a 198 226
a 198 227
a 198 380
a 198 381
a 198 12
a 198 398
a 198 401
a 198 402
a 198 105
a 198 233
a 198 154
a 198 106
a 198 158
a 198 107
a 198 15
a 198 133
a 198 134
a 198 16
a 198 159
a 198 17
a 198 18
a 198 96
a 198 20
a 198 240
a 198 21
a 198 241
a 198 242
a 198 22
a 198 127
a 198 128
a 198 23
a 198 164
a 198 244
a 198 245
a 198 354
a 198 246
a 198 355
a 198 356
a 198 247
a 198 248
a 198 249
a 198 250
a 198 166
a 198 359
a 198 321
a 198 251
a 198 252
a 198 253
a 198 24
a 198 254
a 198 255
a 198 25
a 198 256
a 198 362
a 198 263
a 198 264
a 198 406
a 198 265
a 198 364
a 198 407
a 198 267
a 198 268
a 198 27
a 198 269
a 198 408
a 198 270
a 198 271
a 198 110
a 198 28
a 198 29
a 198 273
a 198 30
a 198 275
a 198 277
a 198 410
a 198 326
a 198 329
a 198 281
a 198 330
a 198 32
a 198 34
a 198 285
a 198 372
a 198 288
a 198 331
a 198 422
a 198 423
a 198 35
a 198 291
a 198 292
a 198 111
a 198 294
a 198 36
a 198 171
a 198 38
a 198 173
a 198 307
a 198 427
a 198 174
a 198 112
a 198 175
a 198 176
a 198 135
a 198 177
a 198 179
a 198 136
a 198 39
a 198 376
a 198 309
a 198 41
a 198 113
a 198 42
a 198 43
a 198 44
a 198 46
a 198 114
a 198 47
a 198 48
a 198 49
a 198 115
a 198 50
a 198 51
a 198 53
a 198 54
a 198 55
a 198 181
a 198 56
a 198 57
a 198 58
a 198 59
a 198 60
a 198 99
a 198 183
a 198 61
a 198 62
a 198 184
a 198 63
a 198 185
a 199 131
a 199 119
a 199 147
a 199 6
a 199 7
a 199 148
a 199 347
a 199 64
a 199 65
a 199 66
a 199 84
a 199 138
a 199 10
a 199 102
a 199 377
a 199 441
a 199 378
a 199 11
a 199 220
a 199 153
a 199 221
a 199 104
a 199 379
a 199 223
a 199 224
a 199 225
a 199 226
a 199 227
a 199 380
a 199 381
a 199 12
a 199 398
a 199 400
a 199 401
a 199 402
a 199 105
a 199 233
a 199 154
a 199 106
a 199 158
a 199 107
a 199 15
a 199 133
a 199 134
a 199 16
a 199 159
a 199 17
a 199 96
a 199 20
a 199 240
a 199 21
a 199 241
a 199 242
a 199 22
a 199 127
a 199 128
a 199 23
a 199 164
a 199 244
a 199 245
a 199 354
a 199 246
a 199 355
a 199 356
a 199 247
a 199 248
a 199 249
a 199 250
a 199 166
a 199 321
a 199 251
a 199 252
a 199 253
a 199 24
a 199 254
a 199 255
a 199 256
a 199 362
a 199 263
a 199 264
a 199 265
a 199 364
a 199 365
a 199 407
a 199 267
a 199 268
a 199 27
a 199 269
a 199 408
a 199 462
a 199 270
a 199 271
a 199 110
a 199 28
a 199 29
a 199 273
a 199 30
a 199 275
a 199 277
a 199 410
a 199 326
a 199 329
a 199 281
a 199 330
a 199 32
a 199 34
a 199 285
a 199 372
a 199 288
a 199 331
a 199 422
a 199 423
a 199 35
a 199 291
a 199 292
a 199 111
a 199 294
a 199 36
a 199 171
a 199 38
a 199 173
a 199 307
a 199 427
a 199 174
a 199 112
a 199 175
a 199 176
a 199 135
a 199 177
a 199 179
a 199 136
a 199 39
a 199 376
a 199 309
a 199 41
a 199 113
a 199 42
a 199 43
a 199 44
a 199 46
a 199 114
a 199 47
a 199 48
a 199 49
a 199 115
a 199 50
a 199 51
a 199 53
a 199 54
a 199 55
a 199 181
a 199 56
a 199 57
a 199 58
a 199 59
a 199 60
a 199 99
a 199 183
a 199 61
a 199 62
a 199 184
a 199 63
a 199 185
a 200 131
a 200 147
a 200 6
a 200 7
a 200 148
a 200 347
a 200 84
a 200 138
a 200 10
a 200 102
a 200 377
a 200 378
a 200 11
a 200 220
a 200 221
a 200 104
a 200 379
a 200 223
a 200 224
a 200 225
a 200 226
a 200 227
a 200 380
a 200 381
a 200 12
a 200 401
a 200 402
a 200 233
a 200 154
a 200 156
a 200 158
a 200 107
a 200 16
a 200 17
a 200 96
a 200 20
a 200 240
a 200 21
a 200 241
a 200 242
a 200 22
a 200 127
a 200 128
a 200 23
a 200 164
a 200 244
a 200 245
a 200 354
a 200 246
a 200 355
a 200 356
a 200 247
a 200 248
a 200 249
a 200 250
a 200 166
a 200 359
a 200 321
a 200 252
a 200 253
a 200 24
a 200 254
a 200 255
a 200 25
a 200 256
a 200 362
a 200 263
a 200 264
a 200 265
a 200 364
a 200 365
a 200 407
a 200 267
a 200 268
a 200 27
a 200 269
a 200 408
a 200 462
a 200 270
a 200 271
a 200 110
a 200 28
a 200 29
a 200 273
a 200 30
a 200 275
a 200 277
a 200 410
a 200 326
a 200 329
a 200 281
a 200 330
a 200 32
a 200 34
a 200 285
a 200 372
a 200 288
a 200 422
a 200 423
a 200 35
a 200 291
a 200 292
a 200 111
a 200 294
a 200 36
a 200 37
a 200 171
a 200 38
a 200 307
a 200 427
a 200 174
a 200 112
a 200 135
a 200 39
a 200 376
a 200 309
a 200 41
a 200 113
a 200 42
a 200 43
a 200 44
a 200 45
a 200 46
a 200 114
a 200 47
a 200 48
a 200 49
a 200 115
a 200 50
a 200 51
a 200 53
a 200 54
a 200 55
a 200 181
a 200 56
a 200 57
a 200 58
a 200 59
a 200 60
a 200 99
a 200 61
a 200 62
a 200 184
a 200 63
a 200 185
a 334 7
a 334 377
a 334 104
a 334 223
a 334 224
a 334 225
a 334 226
a 334 227
a 334 380
a 334 233
a 334 154
a 334 240
a 334 21
a 334 241
a 334 242
a 334 22
a 334 128
a 334 164
a 334 245
a 334 247
a 334 248
a 334 249
a 334 250
a 334 359
a 334 252
a 334 254
a 334 255
a 334 25
a 334 256
a 334 362
a 334 263
a 334 265
a 334 364
a 334 365
a 334 407
a 334 267
a 334 268
a 334 269
a 334 408
a 334 462
a 334 270
a 334 28
a 334 273
a 334 30
a 334 275
a 334 167
a 334 277
a 334 410
a 334 32
a 334 285
a 334 288
a 334 422
a 334 35
a 334 291
a 334 292
a 334 294
a 334 38
a 334 427
a 334 309
a 334 41
a 334 42
a 334 43
a 334 46
a 334 49
a 334 115
a 334 50
a 334 53
a 334 54
a 334 56
a 334 58
a 334 59
a 334 60
a 201 131
a 201 119
a 201 147
a 201 6
a 201 7
a 201 148
a 201 347
a 201 64
a 201 84
a 201 138
a 201 10
a 201 102
a 201 377
a 201 11
a 201 220
a 201 221
a 201 104
a 201 379
a 201 223
a 201 224
a 201 225
a 201 226
a 201 227
a 201 380
a 201 381
a 201 12
a 201 401
a 201 402
a 201 105
a 201 233
a 201 154
a 201 106
a 201 156
a 201 107
a 201 133
a 201 16
a 201 17
a 201 96
a 201 235
a 201 20
a 201 240
a 201 21
a 201 241
a 201 242
a 201 22
a 201 128
a 201 23
a 201 164
a 201 244
a 201 245
a 201 354
a 201 246
a 201 355
a 201 356
a 201 247
a 201 248
a 201 249
a 201 250
a 201 166
a 201 359
a 201 321
a 201 252
a 201 253
a 201 24
a 201 254
a 201 255
a 201 25
a 201 256
a 201 362
a 201 263
a 201 264
a 201 406
a 201 265
a 201 364
a 201 365
a 201 407
a 201 267
a 201 268
a 201 27
a 201 269
a 201 408
a 201 462
a 201 270
a 201 271
a 201 110
a 201 28
a 201 29
a 201 273
a 201 30
a 201 275
a 201 277
a 201 410
a 201 326
a 201 329
a 201 281
a 201 330
a 201 32
a 201 34
a 201 285
a 201 372
a 201 288
a 201 331
a 201 422
a 201 423
a 201 35
a 201 291
a 201 292
a 201 111
a 201 294
a 201 36
a 201 37
a 201 171
a 201 38
a 201 307
a 201 427
a 201 112
a 201 135
a 201 39
a 201 376
a 201 309
a 201 41
a 201 113
a 201 42
a 201 43
a 201 44
a 201 46
a 201 114
a 201 47
a 201 48
a 201 49
a 201 115
a 201 50
a 201 51
a 201 53
a 201 54
a 201 55
a 201 181
a 201 56
a 201 57
a 201 58
a 201 59
a 201 60
a 201 99
a 201 61
a 201 62
a 201 184
a 201 63
a 201 185
a 202 147
a 202 6
a 202 7
a 202 148
a 202 84
a 202 138
a 202 10
a 202 102
a 202 377
a 202 11
a 202 220
a 202 104
a 202 223
a 202 224
a 202 225
a 202 226
a 202 380
a 202 12
a 202 401
a 202 402
a 202 233
a 202 154
a 202 107
a 202 16
a 202 17
a 202 96
a 202 235
a 202 20
a 202 240
a 202 21
a 202 241
a 202 242
a 202 22
a 202 128
a 202 23
a 202 164
a 202 244
a 202 245
a 202 354
a 202 356
a 202 248
a 202 249
a 202 250
a 202 359
a 202 321
a 202 252
a 202 254
a 202 255
a 202 25
a 202 256
a 202 263
a 202 265
a 202 364
a 202 365
a 202 407
a 202 267
a 202 268
a 202 27
a 202 269
a 202 408
a 202 462
a 202 270
a 202 271
a 202 28
a 202 29
a 202 273
a 202 30
a 202 275
a 202 277
a 202 410
a 202 326
a 202 329
a 202 330
a 202 32
a 202 34
a 202 285
a 202 288
a 202 331
a 202 422
a 202 291
a 202 292
a 202 111
a 202 294
a 202 36
a 202 38
a 202 307
a 202 427
a 202 112
a 202 135
a 202 41
a 202 113
a 202 42
a 202 43
a 202 44
a 202 45
a 202 46
a 202 114
a 202 47
a 202 48
a 202 49
a 202 115
a 202 50
a 202 51
a 202 53
a 202 54
a 202 55
a 202 181
a 202 56
a 202 57
a 202 58
a 202 59
a 202 60
a 202 99
a 202 61
a 202 62
a 202 184
a 202 63
a 202 185
a 335 7
a 335 17
a 335 235
a 335 240
a 335 21
a 335 241
a 335 22
a 335 249
a 335 250
a 335 255
a 335 265
a 335 267
a 335 268
a 335 27
a 335 270
a 335 28
a 335 30
a 335 275
a 335 277
a 335 32
a 335 288
a 335 331
a 335 291
a 335 292
a 335 294
a 335 38
a 335 307
a 335 41
a 335 42
a 335 43
a 335 45
a 335 46
a 335 49
a 335 115
a 335 50
a 335 51
a 335 53
a 335 54
a 335 56
a 335 58
a 335 59
a 335 60
a 336 147
a 336 7
a 336 148
a 336 10
a 336 104
a 336 225
a 336 17
a 336 235
a 336 20
a 336 240
a 336 21
a 336 241
a 336 242
a 336 22
a 336 128
a 336 244
a 336 245
a 336 355
a 336 356
a 336 248
a 336 249
a 336 250
a 336 252
a 336 254
a 336 255
a 336 256
a 336 263
a 336 265
a 336 364
a 336 268
a 336 27
a 336 269
a 336 408
a 336 462
a 336 270
a 336 271
a 336 28
a 336 273
a 336 30
a 336 275
a 336 277
a 336 281
a 336 32
a 336 288
a 336 331
a 336 291
a 336 292
a 336 38
a 336 307
a 336 41
a 336 42
a 336 43
a 336 44
a 336 45
a 336 46
a 336 114
a 336 48
a 336 49
a 336 115
a 336 50
a 336 51
a 336 53
a 336 54
a 336 56
a 336 57
a 336 58
a 336 59
a 336 60
a 336 61
a 336 62
a 336 63
a 203 131
a 203 147
a 203 6
a 203 7
a 203 148
a 203 347
a 203 64
a 203 84
a 203 138
a 203 10
a 203 102
a 203 377
a 203 378
a 203 11
a 203 220
a 203 153
a 203 104
a 203 223
a 203 225
a 203 226
a 203 380
a 203 381
a 203 12
a 203 401
a 203 402
a 203 105
a 203 233
a 203 154
a 203 106
a 203 158
a 203 107
a 203 133
a 203 16
a 203 17
a 203 18
a 203 96
a 203 235
a 203 20
a 203 240
a 203 21
a 203 241
a 203 242
a 203 22
a 203 128
a 203 23
a 203 164
a 203 244
a 203 245
a 203 354
a 203 246
a 203 355
a 203 356
a 203 248
a 203 249
a 203 250
a 203 166
a 203 359
a 203 321
a 203 252
a 203 24
a 203 254
a 203 255
a 203 25
a 203 256
a 203 362
a 203 263
a 203 264
a 203 265
a 203 364
a 203 365
a 203 407
a 203 267
a 203 268
a 203 27
a 203 269
a 203 408
a 203 462
a 203 270
a 203 271
a 203 28
a 203 29
a 203 273
a 203 30
a 203 275
a 203 277
a 203 410
a 203 326
a 203 327
a 203 329
a 203 281
a 203 330
a 203 32
a 203 34
a 203 285
a 203 372
a 203 288
a 203 331
a 203 422
a 203 35
a 203 291
a 203 292
a 203 111
a 203 36
a 203 38
a 203 307
a 203 427
a 203 112
a 203 135
a 203 39
a 203 376
a 203 309
a 203 41
a 203 113
a 203 42
a 203 43
a 203 44
a 203 46
a 203 114
a 203 47
a 203 48
a 203 49
a 203 115
a 203 50
a 203 51
a 203 53
a 203 54
a 203 55
a 203 181
a 203 56
a 203 57
a 203 58
a 203 59
a 203 60
a 203 99
a 203 61
a 203 62
a 203 184
a 203 63
a 203 185
a 204 131
a 204 147
a 204 6
a 204 7
a 204 148
a 204 10
a 204 104
a 204 225
a 204 226
a 204 380
a 204 154
a 204 18
a 204 96
a 204 20
a 204 240
a 204 21
a 204 241
a 204 242
a 204 22
a 204 128
a 204 164
a 204 244
a 204 245
a 204 246
a 204 355
a 204 356
a 204 248
a 204 249
a 204 250
a 204 166
a 204 359
a 204 321
a 204 252
a 204 24
a 204 254
a 204 255
a 204 25
a 204 256
a 204 263
a 204 265
a 204 364
a 204 365
a 204 407
a 204 267
a 204 268
a 204 27
a 204 269
a 204 408
a 204 462
a 204 270
a 204 271
a 204 28
a 204 273
a 204 30
a 204 275
a 204 167
a 204 277
a 204 410
a 204 329
a 204 330
a 204 32
a 204 285
a 204 288
a 204 422
a 204 291
a 204 292
a 204 294
a 204 36
a 204 38
a 204 427
a 204 309
a 204 41
a 204 113
a 204 42
a 204 43
a 204 44
a 204 46
a 204 114
a 204 48
a 204 49
a 204 115
a 204 50
a 204 51
a 204 53
a 204 54
a 204 55
a 204 56
a 204 57
a 204 58
a 204 59
a 204 60
a 204 99
a 204 61
a 204 62
a 204 63
a 204 185
a 205 131
a 205 119
a 205 147
a 205 6
a 205 7
a 205 148
a 205 64
a 205 65
a 205 66
a 205 84
a 205 138
a 205 10
a 205 102
a 205 150
a 205 11
a 205 220
a 205 221
a 205 104
a 205 225
a 205 380
a 205 381
a 205 12
a 205 105
a 205 154
a 205 106
a 205 107
a 205 15
a 205 133
a 205 134
a 205 16
a 205 159
a 205 18
a 205 319
a 205 235
a 205 20
a 205 240
a 205 21
a 205 241
a 205 22
a 205 128
a 205 23
a 205 161
a 205 162
a 205 164
a 205 244
a 205 245
a 205 355
a 205 249
a 205 250
a 205 321
a 205 251
a 205 254
a 205 255
a 205 25
a 205 256
a 205 265
a 205 267
a 205 269
a 205 408
a 205 270
a 205 271
a 205 28
a 205 29
a 205 273
a 205 30
a 205 277
a 205 329
a 205 34
a 205 288
a 205 291
a 205 292
a 205 111
a 205 36
a 205 37
a 205 38
a 205 173
a 205 174
a 205 112
a 205 175
a 205 176
a 205 135
a 205 177
a 205 179
a 205 136
a 205 39
a 205 309
a 205 41
a 205 113
a 205 42
a 205 43
a 205 44
a 205 45
a 205 46
a 205 114
a 205 47
a 205 48
a 205 49
a 205 115
a 205 50
a 205 51
a 205 53
a 205 54
a 205 55
a 205 181
a 205 56
a 205 57
a 205 58
a 205 59
a 205 60
a 205 99
a 205 183
a 205 61
a 205 62
a 205 184
a 205 63
a 205 185
a 206 131
a 206 147
a 206 6
a 206 7
a 206 148
a 206 10
a 206 377
a 206 441
a 206 378
a 206 139
a 206 104
a 206 222
a 206 379
a 206 223
a 206 224
a 206 225
a 206 227
a 206 381
a 206 12
a 206 398
a 206 401
a 206 233
a 206 154
a 206 158
a 206 17
a 206 18
a 206 96
a 206 20
a 206 240
a 206 21
a 206 241
a 206 242
a 206 22
a 206 127
a 206 128
a 206 23
a 206 164
a 206 244
a 206 245
a 206 354
a 206 246
a 206 355
a 206 356
a 206 248
a 206 249
a 206 250
a 206 166
a 206 359
a 206 321
a 206 252
a 206 24
a 206 254
a 206 255
a 206 25
a 206 256
a 206 263
a 206 265
a 206 364
a 206 365
a 206 407
a 206 268
a 206 27
a 206 269
a 206 408
a 206 462
a 206 270
a 206 271
a 206 28
a 206 273
a 206 30
a 206 275
a 206 277
a 206 329
a 206 281
a 206 330
a 206 285
a 206 372
a 206 288
a 206 422
a 206 423
a 206 291
a 206 292
a 206 294
a 206 171
a 206 38
a 206 427
a 206 39
a 206 376
a 206 41
a 206 42
a 206 43
a 206 44
a 206 46
a 206 114
a 206 48
a 206 49
a 206 115
a 206 50
a 206 51
a 206 53
a 206 54
a 206 55
a 206 56
a 206 57
a 206 58
a 206 59
a 206 60
a 206 61
a 206 62
a 206 63
a 206 185
a 337 7
a 337 148
a 337 10
a 337 11
a 337 221
a 337 104
a 337 379
a 337 223
a 337 225
a 337 380
a 337 381
a 337 12
a 337 233
a 337 154
a 337 158
a 337 107
a 337 17
a 337 20
a 337 240
a 337 21
a 337 241
a 337 242
a 337 22
a 337 128
a 337 244
a 337 245
a 337 247
a 337 248
a 337 249
a 337 250
a 337 359
a 337 254
a 337 255
a 337 25
a 337 263
a 337 264
a 337 265
a 337 407
a 337 268
a 337 27
a 337 269
a 337 408
a 337 462
a 337 270
a 337 28
a 337 273
a 337 30
a 337 275
a 337 277
a 337 329
a 337 281
a 337 32
a 337 285
a 337 288
a 337 291
a 337 292
a 337 171
a 337 38
a 337 427
a 337 39
a 337 41
a 337 113
a 337 42
a 337 43
a 337 44
a 337 46
a 337 114
a 337 48
a 337 49
a 337 115
a 337 50
a 337 51
a 337 53
a 337 54
a 337 55
a 337 56
a 337 57
a 337 58
a 337 59
a 337 60
a 337 61
a 337 62
a 337 63
a 337 185
a 338 7
a 338 148
a 338 347
a 338 10
a 338 104
a 338 154
a 338 17
a 338 235
a 338 20
a 338 240
a 338 21
a 338 22
a 338 128
a 338 23
a 338 244
a 338 24
a 338 255
a 338 271
a 338 28
a 338 273
a 338 30
a 338 275
a 338 277
a 338 409
a 338 329
a 338 281
a 338 32
a 338 331
a 338 37
a 338 38
a 338 39
a 338 41
a 338 42
a 338 43
a 338 44
a 338 45
a 338 46
a 338 114
a 338 48
a 338 49
a 338 115
a 338 50
a 338 51
a 338 53
a 338 54
a 338 55
a 338 56
a 338 57
a 338 58
a 338 59
a 338 60
a 338 61
a 338 62
a 338 63
a 338 185
a 437 148
a 437 10
a 437 17
a 437 235
a 437 21
a 437 22
a 437 28
a 437 277
a 437 329
a 437 36
a 437 38
a 437 41
a 437 113
a 437 42
a 437 43
a 437 44
a 437 45
a 437 46
a 437 114
a 437 48
a 437 49
a 437 115
a 437 50
a 437 51
a 437 53
a 437 54
a 437 55
a 437 56
a 437 57
a 437 58
a 437 59
a 437 60
a 437 61
a 437 62
a 437 63
a 437 185
a 207 131
a 207 147
a 207 6
a 207 7
a 207 148
a 207 347
a 207 84
a 207 138
a 207 10
a 207 102
a 207 377
a 207 378
a 207 220
a 207 104
a 207 379
a 207 224
a 207 225
a 207 226
a 207 227
a 207 380
a 207 381
a 207 12
a 207 401
a 207 402
a 207 233
a 207 154
a 207 156
a 207 158
a 207 16
a 207 17
a 207 18
a 207 96
a 207 235
a 207 20
a 207 240
a 207 21
a 207 241
a 207 242
a 207 22
a 207 128
a 207 23
a 207 164
a 207 244
a 207 245
a 207 354
a 207 355
a 207 356
a 207 247
a 207 248
a 207 249
a 207 250
a 207 166
a 207 359
a 207 321
a 207 252
a 207 253
a 207 24
a 207 254
a 207 255
a 207 25
a 207 256
a 207 362
a 207 263
a 207 264
a 207 265
a 207 364
a 207 365
a 207 407
a 207 267
a 207 268
a 207 27
a 207 269
a 207 408
a 207 462
a 207 270
a 207 271
a 207 110
a 207 28
a 207 273
a 207 30
a 207 275
a 207 167
a 207 277
a 207 410
a 207 326
a 207 327
a 207 329
a 207 281
a 207 330
a 207 32
a 207 34
a 207 285
a 207 372
a 207 288
a 207 331
a 207 422
a 207 423
a 207 35
a 207 291
a 207 292
a 207 111
a 207 294
a 207 36
a 207 171
a 207 38
a 207 307
a 207 427
a 207 174
a 207 112
a 207 39
a 207 376
a 207 309
a 207 41
a 207 113
a 207 42
a 207 43
a 207 44
a 207 45
a 207 46
a 207 114
a 207 48
a 207 49
a 207 115
a 207 50
a 207 51
a 207 53
a 207 54
a 207 55
a 207 56
a 207 57
a 207 58
a 207 59
a 207 60
a 207 99
a 207 61
a 207 62
a 207 63
a 207 185
a 208 131
a 208 147
a 208 6
a 208 7
a 208 148
a 208 347
a 208 84
a 208 138
a 208 10
a 208 102
a 208 220
a 208 221
a 208 104
a 208 225
a 208 226
a 208 380
a 208 381
a 208 12
a 208 233
a 208 154
a 208 156
a 208 16
a 208 17
a 208 18
a 208 19
a 208 235
a 208 20
a 208 240
a 208 21
a 208 241
a 208 242
a 208 22
a 208 127
a 208 128
a 208 23
a 208 164
a 208 244
a 208 245
a 208 246
a 208 355
a 208 356
a 208 247
a 208 248
a 208 249
a 208 250
a 208 166
a 208 359
a 208 252
a 208 253
a 208 24
a 208 254
a 208 255
a 208 25
a 208 256
a 208 263
a 208 264
a 208 265
a 208 364
a 208 365
a 208 407
a 208 267
a 208 268
a 208 27
a 208 269
a 208 408
a 208 462
a 208 270
a 208 271
a 208 28
a 208 273
a 208 30
a 208 275
a 208 277
a 208 409
a 208 410
a 208 329
a 208 330
a 208 32
a 208 34
a 208 285
a 208 372
a 208 288
a 208 331
a 208 422
a 208 291
a 208 292
a 208 111
a 208 36
a 208 37
a 208 38
a 208 307
a 208 427
a 208 112
a 208 39
a 208 309
a 208 41
a 208 113
a 208 42
a 208 43
a 208 44
a 208 45
a 208 46
a 208 114
a 208 48
a 208 49
a 208 115
a 208 50
a 208 51
a 208 53
a 208 54
a 208 55
a 208 56
a 208 57
a 208 58
a 208 59
a 208 60
a 208 99
a 208 61
a 208 62
a 208 63
a 208 185
a 209 131
a 209 147
a 209 6
a 209 7
a 209 148
a 209 347
a 209 10
a 209 102
a 209 377
a 209 11
a 209 221
a 209 104
a 209 222
a 209 379
a 209 223
a 209 224
a 209 225
a 209 226
a 209 227
a 209 380
a 209 381
a 209 12
a 209 398
a 209 401
a 209 402
a 209 233
a 209 154
a 209 107
a 209 17
a 209 18
a 209 96
a 209 235
a 209 20
a 209 240
a 209 21
a 209 241
a 209 242
a 209 22
a 209 128
a 209 23
a 209 164
a 209 244
a 209 245
a 209 354
a 209 246
a 209 355
a 209 356
a 209 248
a 209 249
a 209 250
a 209 166
a 209 359
a 209 321
a 209 252
a 209 24
a 209 254
a 209 255
a 209 25
a 209 256
a 209 362
a 209 263
a 209 264
a 209 406
a 209 265
a 209 364
a 209 365
a 209 407
a 209 267
a 209 268
a 209 27
a 209 269
a 209 408
a 209 462
a 209 270
a 209 271
a 209 110
a 209 28
a 209 273
a 209 30
a 209 275
a 209 277
a 209 410
a 209 326
a 209 327
a 209 329
a 209 281
a 209 282
a 209 330
a 209 283
a 209 32
a 209 34
a 209 285
a 209 372
a 209 288
a 209 331
a 209 422
a 209 423
a 209 291
a 209 292
a 209 294
a 209 36
a 209 171
a 209 38
a 209 307
a 209 427
a 209 39
a 209 309
a 209 41
a 209 113
a 209 42
a 209 43
a 209 44
a 209 45
a 209 46
a 209 114
a 209 48
a 209 49
a 209 115
a 209 50
a 209 51
a 209 53
a 209 54
a 209 55
a 209 56
a 209 57
a 209 58
a 209 59
a 209 60
a 209 99
a 209 61
a 209 62
a 209 63
a 209 185
a 339 147
a 339 7
a 339 104
a 339 225
a 339 380
a 339 154
a 339 18
a 339 235
a 339 20
a 339 240
a 339 21
a 339 241
a 339 22
a 339 128
a 339 244
a 339 355
a 339 247
a 339 249
a 339 250
a 339 166
a 339 24
a 339 254
a 339 255
a 339 25
a 339 362
a 339 263
a 339 265
a 339 267
a 339 269
a 339 408
a 339 270
a 339 28
a 339 273
a 339 30
a 339 167
a 339 277
a 339 410
a 339 32
a 339 285
a 339 288
a 339 422
a 339 35
a 339 291
a 339 292
a 339 294
a 339 38
a 339 174
a 339 309
a 339 41
a 339 42
a 339 43
a 339 46
a 339 114
a 339 48
a 339 49
a 339 115
a 339 50
a 339 51
a 339 53
a 339 54
a 339 56
a 339 57
a 339 58
a 339 59
a 339 60
a 339 61
a 340 119
a 340 147
a 340 7
a 340 148
a 340 149
a 340 64
a 340 65
a 340 66
a 340 84
a 340 138
a 340 10
a 340 102
a 340 150
a 340 377
a 340 441
a 340 378
a 340 11
a 340 139
a 340 220
a 340 153
a 340 391
a 340 104
a 340 222
a 340 379
a 340 223
a 340 224
a 340 225
a 340 380
a 340 12
a 340 398
a 340 401
a 340 105
a 340 233
a 340 154
a 340 106
a 340 156
a 340 157
a 340 158
a 340 15
a 340 133
a 340 134
a 340 16
a 340 159
a 340 160
a 340 17
a 340 319
a 340 96
a 340 20
a 340 240
a 340 21
a 340 241
a 340 242
a 340 22
a 340 127
a 340 128
a 340 23
a 340 161
a 340 162
a 340 163
a 340 164
a 340 244
a 340 245
a 340 354
a 340 355
a 340 356
a 340 165
a 340 248
a 340 249
a 340 250
a 340 166
a 340 359
a 340 321
a 340 252
a 340 24
a 340 254
a 340 255
a 340 25
a 340 256
a 340 263
a 340 264
a 340 265
a 340 365
a 340 407
a 340 267
a 340 268
a 340 27
a 340 269
a 340 408
a 340 462
a 340 270
a 340 271
a 340 28
a 340 29
a 340 273
a 340 30
a 340 464
a 340 277
a 340 410
a 340 326
a 340 327
a 340 329
a 340 281
a 340 330
a 340 32
a 340 34
a 340 285
a 340 372
a 340 288
a 340 422
a 340 468
a 340 423
a 340 35
a 340 291
a 340 292
a 340 111
a 340 294
a 340 36
a 340 37
a 340 171
a 340 38
a 340 173
a 340 427
a 340 174
a 340 112
a 340 175
a 340 176
a 340 135
a 340 177
a 340 178
a 340 179
a 340 136
a 340 39
a 340 376
a 340 309
a 340 41
a 340 113
a 340 42
a 340 43
a 340 44
a 340 45
a 340 180
a 340 46
a 340 114
a 340 47
a 340 48
a 340 49
a 340 115
a 340 50
a 340 51
a 340 52
a 340 53
a 340 54
a 340 55
a 340 181
a 340 56
a 340 57
a 340 58
a 340 59
a 340 60
a 340 99
a 340 183
a 340 61
a 340 62
a 340 184
a 340 63
a 340 185
a 340 310
a 340 436
a 391 340
a 391 151
a 391 218
a 391 377
a 391 349
a 391 378
a 391 220
a 391 386
a 391 350
a 391 152
a 391 153
a 391 446
a 391 3
a 391 117
a 391 317
a 391 148
a 391 66
a 391 80
a 391 10
a 391 102
a 391 397
a 391 390
a 391 441
a 391 477
a 391 11
a 391 139
a 391 103
a 391 219
a 391 445
a 391 483
a 391 12
a 391 141
a 391 142
a 391 232
a 391 154
a 391 155
a 391 106
a 391 107
a 391 133
a 391 16
a 391 17
a 391 96
a 391 352
a 391 20
a 391 236
a 391 237
a 391 238
a 391 239
a 391 320
a 391 21
a 391 22
a 391 127
a 391 128
a 391 392
a 391 164
a 391 252
a 391 253
a 391 255
a 391 25
a 391 256
a 391 26
a 391 263
a 391 264
a 391 265
a 391 266
a 391 269
a 391 271
a 391 272
a 391 110
a 391 274
a 391 167
a 391 168
a 391 279
a 391 412
a 391 282
a 391 33
a 391 34
a 391 469
a 391 37
a 391 38
a 391 173
a 391 112
a 391 136
a 391 432
a 391 40
a 391 41
a 391 113
a 391 42
a 391 43
a 391 44
a 391 46
a 391 114
a 391 47
a 391 48
a 391 49
a 391 115
a 391 50
a 391 51
a 391 52
a 391 53
a 391 54
a 391 55
a 391 181
a 391 56
a 391 57
a 391 58
a 391 59
a 391 60
a 391 99
a 391 61
a 391 62
a 391 63
a 391 185
a 391 230
a 391 398
a 391 231
a 391 449
a 391 399
a 391 400
a 391 401
a 391 402
a 391 451
a 391 15
a 391 403
a 391 97
a 391 108
a 391 143
a 391 23
a 391 456
a 391 464
a 391 280
a 391 298
a 391 299
a 391 300
a 391 394
a 391 308
a 391 473
a 391 135
a 341 7
a 341 148
a 341 84
a 341 10
a 341 102
a 341 377
a 341 378
a 341 220
a 341 104
a 341 222
a 341 379
a 341 223
a 341 224
a 341 225
a 341 401
a 341 233
a 341 154
a 341 158
a 341 16
a 341 96
a 341 240
a 341 21
a 341 241
a 341 242
a 341 22
a 341 127
a 341 128
a 341 23
a 341 164
a 341 244
a 341 245
a 341 355
a 341 356
a 341 248
a 341 249
a 341 250
a 341 359
a 341 252
a 341 24
a 341 254
a 341 255
a 341 25
a 341 256
a 341 263
a 341 264
a 341 265
a 341 365
a 341 407
a 341 268
a 341 27
a 341 269
a 341 28
a 341 273
a 341 30
a 341 275
a 341 277
a 341 410
a 341 326
a 341 327
a 341 329
a 341 281
a 341 32
a 341 285
a 341 372
a 341 288
a 341 422
a 341 468
a 341 423
a 341 291
a 341 292
a 341 111
a 341 36
a 341 171
a 341 38
a 341 427
a 341 39
a 341 376
a 341 41
a 341 42
a 341 43
a 341 44
a 341 46
a 341 114
a 341 48
a 341 49
a 341 115
a 341 50
a 341 53
a 341 54
a 341 55
a 341 56
a 341 57
a 341 58
a 341 59
a 341 60
a 341 99
a 341 61
a 341 62
a 341 63
a 341 185
a 341 310
a 395 147
a 395 148
a 395 84
a 395 10
a 395 102
a 395 378
a 395 139
a 395 220
a 395 104
a 395 379
a 395 223
a 395 225
a 395 380
a 395 12
a 395 233
a 395 106
a 395 16
a 395 96
a 395 20
a 395 240
a 395 21
a 395 241
a 395 242
a 395 22
a 395 128
a 395 23
a 395 164
a 395 244
a 395 245
a 395 354
a 395 356
a 395 247
a 395 248
a 395 249
a 395 250
a 395 359
a 395 252
a 395 24
a 395 255
a 395 25
a 395 263
a 395 265
a 395 364
a 395 365
a 395 407
a 395 267
a 395 268
a 395 27
a 395 269
a 395 408
a 395 462
a 395 270
a 395 271
a 395 28
a 395 29
a 395 273
a 395 30
a 395 275
a 395 277
a 395 410
a 395 326
a 395 327
a 395 32
a 395 34
a 395 285
a 395 288
a 395 291
a 395 292
a 395 111
a 395 294
a 395 36
a 395 38
a 395 427
a 395 112
a 395 135
a 395 39
a 395 309
a 395 41
a 395 113
a 395 42
a 395 43
a 395 44
a 395 45
a 395 46
a 395 114
a 395 47
a 395 48
a 395 49
a 395 115
a 395 50
a 395 51
a 395 53
a 395 54
a 395 55
a 395 56
a 395 57
a 395 58
a 395 59
a 395 60
a 395 99
a 395 61
a 395 62
a 395 63
a 395 185
a 342 119
a 342 7
a 342 148
a 342 347
a 342 64
a 342 65
a 342 66
a 342 84
a 342 138
a 342 10
a 342 102
a 342 378
a 342 11
a 342 139
a 342 220
a 342 153
a 342 221
a 342 104
a 342 223
a 342 225
a 342 380
a 342 12
a 342 105
a 342 233
a 342 106
a 342 133
a 342 134
a 342 16
a 342 159
a 342 96
a 342 235
a 342 20
a 342 240
a 342 21
a 342 241
a 342 242
a 342 22
a 342 128
a 342 23
a 342 164
a 342 244
a 342 245
a 342 354
a 342 356
a 342 248
a 342 249
a 342 250
a 342 359
a 342 252
a 342 24
a 342 254
a 342 255
a 342 25
a 342 263
a 342 264
a 342 265
a 342 364
a 342 365
a 342 407
a 342 267
a 342 268
a 342 27
a 342 269
a 342 271
a 342 28
a 342 29
a 342 273
a 342 30
a 342 275
a 342 167
a 342 277
a 342 410
a 342 326
a 342 327
a 342 32
a 342 34
a 342 285
a 342 288
a 342 331
a 342 291
a 342 292
a 342 111
a 342 294
a 342 36
a 342 38
a 342 427
a 342 112
a 342 175
a 342 135
a 342 177
a 342 136
a 342 39
a 342 41
a 342 113
a 342 42
a 342 43
a 342 44
a 342 45
a 342 46
a 342 114
a 342 47
a 342 48
a 342 49
a 342 115
a 342 50
a 342 51
a 342 53
a 342 54
a 342 55
a 342 181
a 342 56
a 342 57
a 342 58
a 342 59
a 342 60
a 342 99
a 342 61
a 342 62
a 342 184
a 342 63
a 342 185
a 342 436
a 438 148
a 438 10
a 438 378
a 438 104
a 438 223
a 438 225
a 438 233
a 438 156
a 438 16
a 438 19
a 438 96
a 438 240
a 438 21
a 438 241
a 438 242
a 438 22
a 438 128
a 438 164
a 438 244
a 438 245
a 438 246
a 438 356
a 438 247
a 438 248
a 438 249
a 438 250
a 438 359
a 438 252
a 438 253
a 438 24
a 438 254
a 438 360
a 438 255
a 438 25
a 438 263
a 438 264
a 438 265
a 438 364
a 438 365
a 438 407
a 438 267
a 438 268
a 438 27
a 438 269
a 438 408
a 438 462
a 438 270
a 438 271
a 438 28
a 438 273
a 438 30
a 438 275
a 438 277
a 438 410
a 438 326
a 438 327
a 438 32
a 438 34
a 438 285
a 438 288
a 438 331
a 438 291
a 438 292
a 438 294
a 438 38
a 438 307
a 438 427
a 438 39
a 438 41
a 438 42
a 438 43
a 438 44
a 438 46
a 438 114
a 438 48
a 438 49
a 438 115
a 438 50
a 438 51
a 438 53
a 438 54
a 438 55
a 438 56
a 438 57
a 438 58
a 438 59
a 438 60
a 438 61
a 438 62
a 438 63
a 211 6
a 211 7
a 211 225
a 211 226
a 211 17
a 211 235
a 211 240
a 211 21
a 211 241
a 211 22
a 211 128
a 211 250
a 211 252
a 211 24
a 211 254
a 211 255
a 211 265
a 211 267
a 211 27
a 211 269
a 211 28
a 211 30
a 211 275
a 211 277
a 211 285
a 211 288
a 211 331
a 211 291
a 211 292
a 211 307
a 211 39
a 211 41
a 211 42
a 211 46
a 211 49
a 211 115
a 211 50
a 211 53
a 211 54
a 211 56
a 211 58
a 211 59
a 211 60
a 211 63
a 211 45
a 212 131
a 212 147
a 212 6
a 212 7
a 212 148
a 212 64
a 212 84
a 212 10
a 212 102
a 212 378
a 212 139
a 212 220
a 212 153
a 212 104
a 212 223
a 212 225
a 212 380
a 212 12
a 212 233
a 212 154
a 212 106
a 212 133
a 212 134
a 212 16
a 212 96
a 212 20
a 212 240
a 212 21
a 212 241
a 212 242
a 212 22
a 212 128
a 212 23
a 212 164
a 212 244
a 212 356
a 212 248
a 212 249
a 212 250
a 212 359
a 212 321
a 212 252
a 212 24
a 212 254
a 212 255
a 212 25
a 212 256
a 212 263
a 212 265
a 212 364
a 212 365
a 212 407
a 212 267
a 212 268
a 212 27
a 212 269
a 212 270
a 212 28
a 212 29
a 212 273
a 212 30
a 212 275
a 212 277
a 212 410
a 212 327
a 212 281
a 212 34
a 212 285
a 212 288
a 212 331
a 212 291
a 212 292
a 212 111
a 212 294
a 212 36
a 212 38
a 212 307
a 212 427
a 212 135
a 212 39
a 212 309
a 212 41
a 212 113
a 212 42
a 212 43
a 212 44
a 212 45
a 212 46
a 212 114
a 212 47
a 212 48
a 212 49
a 212 115
a 212 50
a 212 51
a 212 53
a 212 54
a 212 55
a 212 181
a 212 56
a 212 57
a 212 58
a 212 59
a 212 60
a 212 99
a 212 61
a 212 62
a 212 184
a 212 63
a 212 185
a 213 147
a 213 6
a 213 7
a 213 148
a 213 64
a 213 84
a 213 10
a 213 102
a 213 377
a 213 378
a 213 11
a 213 139
a 213 220
a 213 153
a 213 104
a 213 379
a 213 223
a 213 225
a 213 12
a 213 233
a 213 106
a 213 133
a 213 16
a 213 159
a 213 96
a 213 235
a 213 20
a 213 240
a 213 21
a 213 241
a 213 242
a 213 22
a 213 127
a 213 128
a 213 23
a 213 164
a 213 244
a 213 245
a 213 354
a 213 355
a 213 356
a 213 248
a 213 249
a 213 250
a 213 166
a 213 359
a 213 321
a 213 252
a 213 24
a 213 254
a 213 255
a 213 25
a 213 256
a 213 263
a 213 264
a 213 265
a 213 364
a 213 365
a 213 407
a 213 267
a 213 268
a 213 27
a 213 269
a 213 270
a 213 271
a 213 28
a 213 29
a 213 273
a 213 30
a 213 275
a 213 277
a 213 410
a 213 326
a 213 327
a 213 32
a 213 34
a 213 285
a 213 288
a 213 331
a 213 291
a 213 292
a 213 111
a 213 294
a 213 36
a 213 38
a 213 427
a 213 112
a 213 135
a 213 136
a 213 39
a 213 309
a 213 41
a 213 113
a 213 42
a 213 43
a 213 44
a 213 45
a 213 46
a 213 114
a 213 47
a 213 48
a 213 49
a 213 115
a 213 50
a 213 51
a 213 53
a 213 54
a 213 55
a 213 181
a 213 56
a 213 57
a 213 58
a 213 59
a 213 60
a 213 99
a 213 61
a 213 62
a 213 184
a 213 63
a 213 185
a 343 7
a 343 148
a 343 10
a 343 102
a 343 378
a 343 221
a 343 104
a 343 225
a 343 380
a 343 16
a 343 240
a 343 21
a 343 241
a 343 242
a 343 22
a 343 128
a 343 244
a 343 248
a 343 250
a 343 255
a 343 265
a 343 365
a 343 407
a 343 267
a 343 27
a 343 269
a 343 271
a 343 28
a 343 275
a 343 167
a 343 277
a 343 410
a 343 285
a 343 288
a 343 331
a 343 291
a 343 292
a 343 294
a 343 38
a 343 427
a 343 39
a 343 41
a 343 42
a 343 43
a 343 44
a 343 46
a 343 114
a 343 48
a 343 49
a 343 115
a 343 50
a 343 53
a 343 54
a 343 56
a 343 57
a 343 58
a 343 59
a 343 60
a 343 99
a 343 61
a 343 62
a 343 63
a 343 185
a 343 113
a 214 147
a 214 6
a 214 7
a 214 148
a 214 84
a 214 10
a 214 102
a 214 377
a 214 378
a 214 139
a 214 220
a 214 104
a 214 222
a 214 379
a 214 223
a 214 224
a 214 225
a 214 380
a 214 12
a 214 401
a 214 233
a 214 154
a 214 106
a 214 156
a 214 158
a 214 16
a 214 96
a 214 20
a 214 240
a 214 21
a 214 241
a 214 242
a 214 22
a 214 127
a 214 128
a 214 23
a 214 164
a 214 244
a 214 245
a 214 354
a 214 246
a 214 355
a 214 356
a 214 248
a 214 249
a 214 250
a 214 359
a 214 321
a 214 252
a 214 24
a 214 254
a 214 255
a 214 25
a 214 256
a 214 263
a 214 264
a 214 265
a 214 364
a 214 365
a 214 407
a 214 267
a 214 268
a 214 27
a 214 269
a 214 408
a 214 462
a 214 270
a 214 271
a 214 28
a 214 29
a 214 273
a 214 30
a 214 275
a 214 277
a 214 410
a 214 326
a 214 327
a 214 329
a 214 281
a 214 330
a 214 32
a 214 34
a 214 285
a 214 372
a 214 288
a 214 331
a 214 422
a 214 291
a 214 292
a 214 111
a 214 294
a 214 36
a 214 38
a 214 307
a 214 427
a 214 112
a 214 135
a 214 39
a 214 376
a 214 309
a 214 41
a 214 113
a 214 42
a 214 43
a 214 44
a 214 45
a 214 46
a 214 114
a 214 47
a 214 48
a 214 49
a 214 115
a 214 50
a 214 51
a 214 53
a 214 54
a 214 55
a 214 56
a 214 57
a 214 58
a 214 59
a 214 60
a 214 99
a 214 61
a 214 62
a 214 63
a 214 185
a 215 147
a 215 6
a 215 7
a 215 148
a 215 347
a 215 84
a 215 10
a 215 102
a 215 378
a 215 11
a 215 220
a 215 104
a 215 379
a 215 223
a 215 225
a 215 401
a 215 233
a 215 16
a 215 19
a 215 96
a 215 235
a 215 240
a 215 21
a 215 241
a 215 242
a 215 22
a 215 127
a 215 128
a 215 23
a 215 164
a 215 245
a 215 354
a 215 246
a 215 356
a 215 247
a 215 248
a 215 249
a 215 250
a 215 359
a 215 252
a 215 24
a 215 254
a 215 360
a 215 255
a 215 25
a 215 263
a 215 264
a 215 265
a 215 364
a 215 365
a 215 407
a 215 267
a 215 268
a 215 27
a 215 269
a 215 270
a 215 271
a 215 28
a 215 273
a 215 30
a 215 275
a 215 277
a 215 409
a 215 410
a 215 326
a 215 327
a 215 32
a 215 34
a 215 285
a 215 288
a 215 331
a 215 291
a 215 292
a 215 111
a 215 294
a 215 36
a 215 38
a 215 307
a 215 427
a 215 39
a 215 41
a 215 42
a 215 43
a 215 44
a 215 45
a 215 46
a 215 114
a 215 48
a 215 49
a 215 115
a 215 50
a 215 51
a 215 53
a 215 54
a 215 55
a 215 56
a 215 57
a 215 58
a 215 59
a 215 60
a 215 99
a 215 61
a 215 62
a 215 63
a 215 185
a 215 18
a 344 119
a 344 147
a 344 7
a 344 148
a 344 149
a 344 347
a 344 64
a 344 65
a 344 66
a 344 84
a 344 138
a 344 10
a 344 102
a 344 150
a 344 377
a 344 378
a 344 11
a 344 139
a 344 220
a 344 153
a 344 104
a 344 225
a 344 380
a 344 12
a 344 105
a 344 154
a 344 106
a 344 158
a 344 15
a 344 133
a 344 134
a 344 16
a 344 159
a 344 160
a 344 96
a 344 235
a 344 20
a 344 240
a 344 21
a 344 241
a 344 22
a 344 128
a 344 23
a 344 161
a 344 162
a 344 164
a 344 244
a 344 355
a 344 249
a 344 250
a 344 252
a 344 24
a 344 255
a 344 267
a 344 27
a 344 269
a 344 408
a 344 462
a 344 270
a 344 28
a 344 29
a 344 30
a 344 275
a 344 277
a 344 35
a 344 291
a 344 111
a 344 36
a 344 37
a 344 38
a 344 173
a 344 174
a 344 112
a 344 175
a 344 176
a 344 135
a 344 177
a 344 179
a 344 136
a 344 39
a 344 309
a 344 41
a 344 113
a 344 42
a 344 43
a 344 44
a 344 45
a 344 46
a 344 114
a 344 47
a 344 48
a 344 49
a 344 115
a 344 50
a 344 51
a 344 53
a 344 54
a 344 55
a 344 181
a 344 56
a 344 57
a 344 58
a 344 59
a 344 60
a 344 99
a 344 183
a 344 61
a 344 62
a 344 184
a 344 63
a 344 185
a 345 147
a 345 7
a 345 148
a 345 84
a 345 10
a 345 102
a 345 377
a 345 378
a 345 220
a 345 104
a 345 379
a 345 223
a 345 225
a 345 226
a 345 227
a 345 401
a 345 233
a 345 154
a 345 16
a 345 96
a 345 240
a 345 21
a 345 241
a 345 242
a 345 22
a 345 128
a 345 23
a 345 164
a 345 244
a 345 245
a 345 354
a 345 246
a 345 356
a 345 248
a 345 249
a 345 250
a 345 359
a 345 252
a 345 24
a 345 255
a 345 25
a 345 263
a 345 264
a 345 265
a 345 364
a 345 365
a 345 407
a 345 267
a 345 268
a 345 27
a 345 269
a 345 408
a 345 270
a 345 271
a 345 28
a 345 273
a 345 30
a 345 275
a 345 277
a 345 410
a 345 326
a 345 327
a 345 32
a 345 34
a 345 285
a 345 288
a 345 331
a 345 422
a 345 291
a 345 292
a 345 111
a 345 294
a 345 36
a 345 38
a 345 307
a 345 427
a 345 39
a 345 309
a 345 41
a 345 113
a 345 42
a 345 43
a 345 44
a 345 46
a 345 114
a 345 48
a 345 49
a 345 115
a 345 50
a 345 51
a 345 53
a 345 54
a 345 55
a 345 56
a 345 57
a 345 58
a 345 59
a 345 60
a 345 99
a 345 61
a 345 62
a 345 63
a 345 185
a 345 221
a 345 12
a 345 140
a 345 142
a 345 17
a 345 319
a 345 300
a 345 301
a 345 47
a 345 436
a 345 184
a 217 119
a 217 147
a 217 6
a 217 318
a 217 148
a 217 149
a 217 348
a 217 64
a 217 65
a 217 66
a 217 84
a 217 138
a 217 10
a 217 102
a 217 150
a 217 151
a 217 377
a 217 220
a 217 400
a 217 141
a 217 105
a 217 232
a 217 154
a 217 106
a 217 157
a 217 158
a 217 107
a 217 14
a 217 15
a 217 133
a 217 134
a 217 16
a 217 159
a 217 160
a 217 17
a 217 20
a 217 236
a 217 240
a 217 21
a 217 22
a 217 127
a 217 128
a 217 161
a 217 162
a 217 163
a 217 164
a 217 165
a 217 251
a 217 253
a 217 255
a 217 256
a 217 26
a 217 460
a 217 263
a 217 264
a 217 406
a 217 265
a 217 266
a 217 363
a 217 461
a 217 271
a 217 110
a 217 273
a 217 274
a 217 366
a 217 30
a 217 275
a 217 167
a 217 278
a 217 368
a 217 279
a 217 281
a 217 282
a 217 283
a 217 32
a 217 34
a 217 284
a 217 286
a 217 287
a 217 289
a 217 422
a 217 35
a 217 292
a 217 111
a 217 294
a 217 295
a 217 296
a 217 297
a 217 425
a 217 37
a 217 38
a 217 300
a 217 172
a 217 301
a 217 306
a 217 307
a 217 174
a 217 428
a 217 112
a 217 175
a 217 176
a 217 135
a 217 177
a 217 178
a 217 179
a 217 136
a 217 41
a 217 113
a 217 42
a 217 43
a 217 44
a 217 180
a 217 46
a 217 114
a 217 47
a 217 48
a 217 49
a 217 115
a 217 50
a 217 51
a 217 52
a 217 53
a 217 54
a 217 55
a 217 181
a 217 56
a 217 57
a 217 58
a 217 59
a 217 60
a 217 99
a 217 183
a 217 61
a 217 396
a 217 62
a 217 63
a 217 185
a 217 302
a 348 217
a 348 119
a 348 318
a 348 7
a 348 148
a 348 346
a 348 149
a 348 64
a 348 84
a 348 10
a 348 101
a 348 102
a 348 151
a 348 220
a 348 104
a 348 222
a 348 13
a 348 400
a 348 105
a 348 232
a 348 106
a 348 107
a 348 14
a 348 133
a 348 134
a 348 16
a 348 17
a 348 319
a 348 235
a 348 20
a 348 236
a 348 108
a 348 21
a 348 22
a 348 127
a 348 128
a 348 164
a 348 251
a 348 255
a 348 256
a 348 26
a 348 460
a 348 362
a 348 258
a 348 260
a 348 261
a 348 263
a 348 264
a 348 406
a 348 265
a 348 266
a 348 363
a 348 461
a 348 271
a 348 272
a 348 110
a 348 29
a 348 273
a 348 274
a 348 366
a 348 30
a 348 167
a 348 168
a 348 409
a 348 278
a 348 279
a 348 282
a 348 283
a 348 34
a 348 286
a 348 292
a 348 111
a 348 294
a 348 295
a 348 296
a 348 297
a 348 37
a 348 38
a 348 300
a 348 172
a 348 301
a 348 307
a 348 174
a 348 112
a 348 135
a 348 136
a 348 40
a 348 41
a 348 113
a 348 42
a 348 44
a 348 46
a 348 114
a 348 47
a 348 48
a 348 49
a 348 115
a 348 50
a 348 51
a 348 52
a 348 53
a 348 54
a 348 55
a 348 181
a 348 56
a 348 57
a 348 58
a 348 59
a 348 60
a 348 99
a 348 61
a 348 62
a 348 63
a 348 185
a 141 217
a 141 102
a 141 150
a 141 388
a 141 389
a 141 151
a 141 349
a 141 378
a 141 442
a 141 139
a 141 443
a 141 152
a 141 153
a 141 445
a 141 391
a 141 223
a 141 12
a 141 447
a 141 230
a 141 231
a 141 399
a 141 450
a 141 451
a 141 140
a 141 117
a 141 100
a 141 119
a 141 147
a 141 137
a 141 6
a 141 316
a 141 318
a 141 7
a 141 8
a 141 148
a 141 149
a 141 64
a 141 65
a 141 66
a 141 80
a 141 84
a 141 138
a 141 10
a 141 89
a 141 218
a 141 103
a 141 220
a 141 386
a 141 221
a 141 104
a 141 222
a 141 228
a 141 381
a 141 13
a 141 142
a 141 105
a 141 232
a 141 154
a 141 155
a 141 106
a 141 107
a 141 14
a 141 15
a 141 133
a 141 134
a 141 16
a 141 159
a 141 404
a 141 160
a 141 17
a 141 18
a 141 19
a 141 319
a 141 96
a 141 352
a 141 20
a 141 236
a 141 237
a 141 320
a 141 240
a 141 21
a 141 22
a 141 127
a 141 128
a 141 161
a 141 162
a 141 163
a 141 164
a 141 166
a 141 253
a 141 24
a 141 255
a 141 25
a 141 460
a 141 261
a 141 264
a 141 406
a 141 28
a 141 29
a 141 30
a 141 275
a 141 367
a 141 167
a 141 328
a 141 414
a 141 281
a 141 32
a 141 34
a 141 35
a 141 111
a 141 296
a 141 38
a 141 172
a 141 307
a 141 174
a 141 428
a 141 112
a 141 175
a 141 176
a 141 135
a 141 177
a 141 178
a 141 179
a 141 136
a 141 40
a 141 41
a 141 113
a 141 42
a 141 43
a 141 44
a 141 45
a 141 180
a 141 46
a 141 114
a 141 47
a 141 48
a 141 49
a 141 115
a 141 50
a 141 51
a 141 52
a 141 53
a 141 54
a 141 55
a 141 181
a 141 56
a 141 57
a 141 58
a 141 59
a 141 60
a 141 99
a 141 183
a 141 61
a 141 62
a 141 184
a 141 63
a 141 185
a 141 156
a 141 157
a 141 158
a 141 234
a 141 403
a 141 484
a 141 405
a 141 452
a 141 453
a 141 454
a 141 97
a 141 108
a 141 98
a 141 143
a 141 353
a 141 23
a 141 251
a 141 254
a 141 360
a 141 322
a 141 361
a 141 263
a 141 265
a 141 129
a 141 324
a 141 268
a 141 269
a 141 270
a 141 272
a 141 130
a 141 110
a 141 366
a 141 276
a 141 168
a 141 325
a 141 279
a 141 384
a 141 370
a 141 280
a 141 330
a 141 415
a 141 284
a 141 416
a 141 417
a 141 418
a 141 170
a 141 285
a 141 372
a 141 287
a 141 288
a 141 289
a 141 331
a 141 419
a 141 373
a 141 420
a 141 421
a 141 422
a 141 291
a 141 292
a 141 424
a 141 294
a 141 297
a 141 37
a 141 171
a 141 300
a 141 301
a 141 144
a 141 394
a 141 374
a 141 429
a 141 430
a 141 308
a 141 473
a 141 474
a 141 309
a 141 434
a 141 435
a 141 182
a 141 116
a 141 436
a 266 217
a 266 346
a 266 439
a 266 149
a 266 348
a 266 391
a 266 229
a 266 399
a 266 400
a 266 402
a 266 154
a 266 155
a 266 106
a 266 158
a 266 107
a 266 20
a 266 97
a 266 98
a 266 143
a 266 127
a 266 128
a 266 164
a 266 166
a 266 251
a 266 255
a 266 256
a 266 26
a 266 362
a 266 257
a 266 265
a 266 119
a 266 6
a 266 316
a 266 7
a 266 148
a 266 64
a 266 65
a 266 66
a 266 80
a 266 84
a 266 138
a 266 10
a 266 102
a 266 220
a 266 104
a 266 105
a 266 232
a 266 14
a 266 133
a 266 134
a 266 16
a 266 17
a 266 236
a 266 21
a 266 22
a 266 23
a 266 359
a 266 253
a 266 322
a 266 361
a 266 25
a 266 460
a 266 258
a 266 259
a 266 260
a 266 261
a 266 262
a 266 264
a 266 406
a 266 323
a 266 363
a 266 271
a 266 110
a 266 274
a 266 167
a 266 168
a 266 31
a 266 368
a 266 279
a 266 329
a 266 280
a 266 281
a 266 282
a 266 371
a 266 283
a 266 32
a 266 33
a 266 34
a 266 289
a 266 331
a 266 467
a 266 35
a 266 111
a 266 37
a 266 38
a 266 394
a 266 174
a 266 429
a 266 112
a 266 175
a 266 176
a 266 135
a 266 177
a 266 136
a 266 41
a 266 113
a 266 42
a 266 43
a 266 44
a 266 46
a 266 114
a 266 47
a 266 48
a 266 49
a 266 115
a 266 50
a 266 51
a 266 52
a 266 53
a 266 54
a 266 55
a 266 181
a 266 56
a 266 57
a 266 58
a 266 59
a 266 60
a 266 99
a 266 183
a 266 61
a 266 62
a 266 63
a 266 185
a 266 364
a 266 365
a 266 407
a 266 267
a 266 268
a 266 27
a 266 269
a 266 408
a 266 462
a 266 270
a 266 272
a 266 463
a 266 28
a 266 29
a 266 273
a 266 464
a 266 275
a 266 276
a 266 169
a 266 277
a 266 325
a 266 409
a 266 410
a 266 326
a 266 327
a 266 328
a 266 278
a 266 369
a 266 411
a 266 384
a 266 412
a 266 413
a 266 414
a 266 370
a 266 330
a 266 284
a 266 416
a 266 417
a 266 418
a 266 170
a 266 393
a 266 465
a 266 285
a 266 466
a 266 372
a 266 286
a 266 287
a 266 288
a 266 290
a 266 419
a 266 373
a 266 420
a 266 421
a 266 422
a 266 468
a 266 469
a 266 423
a 266 291
a 266 292
a 266 293
a 266 294
a 266 295
a 266 296
a 266 297
a 266 171
a 266 298
a 266 426
a 266 299
a 266 300
a 266 172
a 266 301
a 266 302
a 266 303
a 266 304
a 266 471
a 266 472
a 266 305
a 266 173
a 266 306
a 266 307
a 266 427
a 266 144
a 266 428
a 266 308
a 266 40
a 266 436
a 363 217
a 363 346
a 363 439
a 363 149
a 363 348
a 363 446
a 363 12
a 363 402
a 363 17
a 363 20
a 363 128
a 363 162
a 363 164
a 363 356
a 363 255
a 363 256
a 363 26
a 363 362
a 363 265
a 363 266
a 363 316
a 363 7
a 363 148
a 363 80
a 363 10
a 363 102
a 363 220
a 363 232
a 363 106
a 363 107
a 363 16
a 363 21
a 363 22
a 363 359
a 363 251
a 363 253
a 363 322
a 363 361
a 363 25
a 363 460
a 363 257
a 363 258
a 363 259
a 363 260
a 363 261
a 363 262
a 363 406
a 363 271
a 363 366
a 363 167
a 363 368
a 363 279
a 363 282
a 363 371
a 363 283
a 363 32
a 363 34
a 363 287
a 363 290
a 363 331
a 363 467
a 363 35
a 363 292
a 363 394
a 363 112
a 363 39
a 363 41
a 363 113
a 363 42
a 363 44
a 363 46
a 363 114
a 363 47
a 363 48
a 363 49
a 363 115
a 363 50
a 363 51
a 363 52
a 363 53
a 363 54
a 363 55
a 363 181
a 363 56
a 363 57
a 363 58
a 363 59
a 363 60
a 363 99
a 363 61
a 363 62
a 363 63
a 363 185
a 363 324
a 363 365
a 363 407
a 363 27
a 363 272
a 363 110
a 363 28
a 363 29
a 363 273
a 363 275
a 363 276
a 363 168
a 363 31
a 363 169
a 363 277
a 363 325
a 363 409
a 363 326
a 363 327
a 363 328
a 363 278
a 363 329
a 363 369
a 363 411
a 363 384
a 363 413
a 363 280
a 363 281
a 363 330
a 363 33
a 363 284
a 363 416
a 363 417
a 363 418
a 363 170
a 363 393
a 363 465
a 363 285
a 363 466
a 363 372
a 363 288
a 363 289
a 363 419
a 363 373
a 363 420
a 363 421
a 363 422
a 363 468
a 363 423
a 363 291
a 363 111
a 363 293
a 363 294
a 363 295
a 363 296
a 363 297
a 363 37
a 363 171
a 363 298
a 363 299
a 363 38
a 363 300
a 363 172
a 363 301
a 363 302
a 363 304
a 363 471
a 363 173
a 363 306
a 363 307
a 363 427
a 363 174
a 363 428
a 363 175
a 363 375
a 363 176
a 363 430
a 363 431
a 363 135
a 363 177
a 363 136
a 363 474
a 363 432
a 363 40
a 461 217
a 461 346
a 461 439
a 461 149
a 461 348
a 461 446
a 461 399
a 461 107
a 461 20
a 461 128
a 461 256
a 461 26
a 461 263
a 461 318
a 461 148
a 461 10
a 461 104
a 461 13
a 461 16
a 461 17
a 461 108
a 461 240
a 461 21
a 461 127
a 461 253
a 461 255
a 461 361
a 461 25
a 461 460
a 461 257
a 461 259
a 461 260
a 461 261
a 461 264
a 461 406
a 461 265
a 461 27
a 461 271
a 461 274
a 461 366
a 461 275
a 461 167
a 461 409
a 461 368
a 461 279
a 461 282
a 461 283
a 461 34
a 461 394
a 461 41
a 461 113
a 461 42
a 461 44
a 461 46
a 461 114
a 461 47
a 461 48
a 461 49
a 461 50
a 461 51
a 461 53
a 461 54
a 461 55
a 461 181
a 461 56
a 461 57
a 461 58
a 461 59
a 461 60
a 461 61
a 461 62
a 461 63
a 461 185
a 461 324
a 461 364
a 461 267
a 461 272
a 461 110
a 461 463
a 461 28
a 461 276
a 461 168
a 461 169
a 461 277
a 461 326
a 461 278
a 461 384
a 461 280
a 461 281
a 461 33
a 461 284
a 461 416
a 461 285
a 461 372
a 461 288
a 461 289
a 461 419
a 461 422
a 461 294
a 461 297
a 461 37
a 461 171
a 461 299
a 461 38
a 461 300
a 461 172
a 461 301
a 461 302
a 461 304
a 461 173
a 461 306
a 461 307
a 461 428
a 461 308
a 274 217
a 274 346
a 274 439
a 274 149
a 274 347
a 274 348
a 274 378
a 274 446
a 274 391
a 274 447
a 274 398
a 274 399
a 274 400
a 274 401
a 274 402
a 274 450
a 274 451
a 274 107
a 274 134
a 274 484
a 274 452
a 274 453
a 274 17
a 274 97
a 274 143
a 274 128
a 274 164
a 274 244
a 274 356
a 274 251
a 274 255
a 274 361
a 274 25
a 274 480
a 274 256
a 274 26
a 274 460
a 274 362
a 274 257
a 274 261
a 274 263
a 274 406
a 274 265
a 274 266
a 274 461
a 274 324
a 274 364
a 274 365
a 274 407
a 274 267
a 274 268
a 274 27
a 274 269
a 274 408
a 274 462
a 274 270
a 274 271
a 274 272
a 274 110
a 274 463
a 274 28
a 274 29
a 274 273
a 274 6
a 274 318
a 274 148
a 274 84
a 274 10
a 274 102
a 274 220
a 274 105
a 274 232
a 274 154
a 274 106
a 274 14
a 274 133
a 274 16
a 274 159
a 274 319
a 274 20
a 274 236
a 274 108
a 274 240
a 274 21
a 274 22
a 274 127
a 274 258
a 274 259
a 274 260
a 274 262
a 274 264
a 274 167
a 274 279
a 274 280
a 274 282
a 274 32
a 274 34
a 274 35
a 274 111
a 274 296
a 274 297
a 274 38
a 274 394
a 274 429
a 274 112
a 274 135
a 274 179
a 274 136
a 274 41
a 274 113
a 274 42
a 274 43
a 274 44
a 274 46
a 274 114
a 274 47
a 274 48
a 274 49
a 274 115
a 274 50
a 274 51
a 274 52
a 274 53
a 274 54
a 274 55
a 274 181
a 274 56
a 274 57
a 274 58
a 274 59
a 274 60
a 274 99
a 274 61
a 274 62
a 274 184
a 274 63
a 274 185
a 274 366
a 274 30
a 274 464
a 274 275
a 274 276
a 274 168
a 274 31
a 274 169
a 274 277
a 274 325
a 274 409
a 274 410
a 274 326
a 274 327
a 274 278
a 274 368
a 274 329
a 274 411
a 274 384
a 274 413
a 274 414
a 274 370
a 274 281
a 274 330
a 274 283
a 274 33
a 274 284
a 274 416
a 274 417
a 274 418
a 274 170
a 274 393
a 274 465
a 274 285
a 274 372
a 274 286
a 274 287
a 274 288
a 274 289
a 274 290
a 274 331
a 274 419
a 274 373
a 274 420
a 274 421
a 274 422
a 274 468
a 274 423
a 274 291
a 274 292
a 274 293
a 274 294
a 274 295
a 274 425
a 274 37
a 274 171
a 274 298
a 274 426
a 274 299
a 274 300
a 274 172
a 274 301
a 274 303
a 274 304
a 274 471
a 274 472
a 274 305
a 274 173
a 274 306
a 274 307
a 274 427
a 274 144
a 274 374
a 274 174
a 274 428
a 274 175
a 274 176
a 274 430
a 274 308
a 274 475
a 274 432
a 274 309
a 274 40
a 366 217
a 366 346
a 366 439
a 366 149
a 366 347
a 366 348
a 366 398
a 366 231
a 366 399
a 366 400
a 366 401
a 366 402
a 366 450
a 366 451
a 366 107
a 366 134
a 366 17
a 366 97
a 366 128
a 366 356
a 366 251
a 366 255
a 366 361
a 366 25
a 366 479
a 366 480
a 366 256
a 366 26
a 366 460
a 366 362
a 366 257
a 366 260
a 366 261
a 366 263
a 366 264
a 366 406
a 366 265
a 366 363
a 366 461
a 366 129
a 366 324
a 366 364
a 366 365
a 366 407
a 366 267
a 366 268
a 366 27
a 366 269
a 366 408
a 366 462
a 366 270
a 366 271
a 366 272
a 366 130
a 366 110
a 366 273
a 366 314
a 366 318
a 366 7
a 366 8
a 366 148
a 366 84
a 366 10
a 366 102
a 366 151
a 366 104
a 366 12
a 366 141
a 366 232
a 366 154
a 366 106
a 366 133
a 366 484
a 366 16
a 366 452
a 366 453
a 366 352
a 366 20
a 366 236
a 366 108
a 366 240
a 366 21
a 366 22
a 366 127
a 366 162
a 366 164
a 366 253
a 366 24
a 366 259
a 366 274
a 366 167
a 366 279
a 366 371
a 366 283
a 366 32
a 366 34
a 366 286
a 366 287
a 366 288
a 366 289
a 366 290
a 366 467
a 366 419
a 366 292
a 366 111
a 366 297
a 366 38
a 366 394
a 366 429
a 366 112
a 366 375
a 366 430
a 366 136
a 366 40
a 366 41
a 366 113
a 366 42
a 366 43
a 366 44
a 366 46
a 366 114
a 366 47
a 366 48
a 366 49
a 366 115
a 366 50
a 366 51
a 366 52
a 366 53
a 366 54
a 366 55
a 366 181
a 366 56
a 366 57
a 366 58
a 366 59
a 366 60
a 366 99
a 366 183
a 366 61
a 366 62
a 366 63
a 366 185
a 366 30
a 366 464
a 366 275
a 366 367
a 366 276
a 366 168
a 366 31
a 366 169
a 366 277
a 366 325
a 366 409
a 366 410
a 366 326
a 366 278
a 366 368
a 366 329
a 366 411
a 366 384
a 366 414
a 366 280
a 366 281
a 366 330
a 366 33
a 366 284
a 366 416
a 366 417
a 366 418
a 366 170
a 366 465
a 366 285
a 366 466
a 366 372
a 366 373
a 366 420
a 366 421
a 366 422
a 366 468
a 366 423
a 366 291
a 366 293
a 366 294
a 366 295
a 366 296
a 366 425
a 366 37
a 366 171
a 366 298
a 366 426
a 366 299
a 366 300
a 366 172
a 366 301
a 366 302
a 366 303
a 366 304
a 366 471
a 366 472
a 366 305
a 366 173
a 366 306
a 366 307
a 366 144
a 366 428
a 366 431
a 366 308
a 366 135
a 366 177
a 366 432
a 366 309
a 278 217
a 278 346
a 278 348
a 278 447
a 278 20
a 278 128
a 278 251
a 278 255
a 278 256
a 278 26
a 278 362
a 278 267
a 278 27
a 278 269
a 278 271
a 278 272
a 278 110
a 278 28
a 278 29
a 278 273
a 278 275
a 278 167
a 278 276
a 278 168
a 278 31
a 278 169
a 278 277
a 278 409
a 278 327
a 278 119
a 278 6
a 278 318
a 278 148
a 278 64
a 278 65
a 278 66
a 278 84
a 278 138
a 278 10
a 278 102
a 278 150
a 278 220
a 278 104
a 278 12
a 278 13
a 278 105
a 278 232
a 278 154
a 278 106
a 278 107
a 278 14
a 278 133
a 278 134
a 278 16
a 278 159
a 278 17
a 278 240
a 278 21
a 278 22
a 278 23
a 278 161
a 278 162
a 278 164
a 278 253
a 278 460
a 278 257
a 278 259
a 278 260
a 278 263
a 278 264
a 278 406
a 278 265
a 278 266
a 278 323
a 278 363
a 278 461
a 278 129
a 278 274
a 278 366
a 278 30
a 278 368
a 278 279
a 278 329
a 278 411
a 278 384
a 278 414
a 278 280
a 278 281
a 278 282
a 278 371
a 278 283
a 278 32
a 278 34
a 278 285
a 278 288
a 278 289
a 278 290
a 278 35
a 278 111
a 278 297
a 278 38
a 278 172
a 278 301
a 278 394
a 278 174
a 278 429
a 278 112
a 278 175
a 278 176
a 278 135
a 278 177
a 278 179
a 278 136
a 278 41
a 278 113
a 278 42
a 278 43
a 278 44
a 278 46
a 278 114
a 278 47
a 278 48
a 278 49
a 278 115
a 278 50
a 278 51
a 278 52
a 278 53
a 278 54
a 278 55
a 278 181
a 278 56
a 278 57
a 278 58
a 278 59
a 278 60
a 278 99
a 278 183
a 278 61
a 278 62
a 278 184
a 278 63
a 278 185
a 278 369
a 278 412
a 278 413
a 278 330
a 278 33
a 278 284
a 278 331
a 278 420
a 278 293
a 278 294
a 278 37
a 278 298
a 278 426
a 278 299
a 278 300
a 278 302
a 278 304
a 278 472
a 278 173
a 368 217
a 368 346
a 368 446
a 368 399
a 368 251
a 368 255
a 368 256
a 368 26
a 368 266
a 368 363
a 368 461
a 368 129
a 368 324
a 368 364
a 368 365
a 368 407
a 368 267
a 368 268
a 368 27
a 368 269
a 368 408
a 368 462
a 368 270
a 368 271
a 368 272
a 368 130
a 368 110
a 368 28
a 368 273
a 368 30
a 368 275
a 368 167
a 368 276
a 368 168
a 368 31
a 368 277
a 368 325
a 368 409
a 368 326
a 368 327
a 368 328
a 368 278
a 368 314
a 368 7
a 368 148
a 368 64
a 368 84
a 368 10
a 368 102
a 368 220
a 368 104
a 368 228
a 368 13
a 368 105
a 368 232
a 368 155
a 368 106
a 368 133
a 368 134
a 368 16
a 368 17
a 368 20
a 368 240
a 368 21
a 368 22
a 368 127
a 368 128
a 368 244
a 368 249
a 368 250
a 368 253
a 368 460
a 368 362
a 368 257
a 368 260
a 368 263
a 368 264
a 368 406
a 368 265
a 368 323
a 368 274
a 368 366
a 368 279
a 368 329
a 368 369
a 368 411
a 368 280
a 368 281
a 368 282
a 368 330
a 368 371
a 368 283
a 368 415
a 368 32
a 368 34
a 368 287
a 368 288
a 368 289
a 368 290
a 368 331
a 368 292
a 368 111
a 368 394
a 368 429
a 368 112
a 368 135
a 368 136
a 368 41
a 368 113
a 368 42
a 368 43
a 368 44
a 368 46
a 368 114
a 368 47
a 368 48
a 368 49
a 368 115
a 368 50
a 368 51
a 368 52
a 368 53
a 368 54
a 368 55
a 368 181
a 368 56
a 368 57
a 368 58
a 368 59
a 368 60
a 368 99
a 368 183
a 368 61
a 368 62
a 368 63
a 368 185
a 368 384
a 368 413
a 368 170
a 368 285
a 368 372
a 368 373
a 368 420
a 368 421
a 368 422
a 368 291
a 368 293
a 368 294
a 368 295
a 368 296
a 368 37
a 368 298
a 368 426
a 368 299
a 368 38
a 368 300
a 368 172
a 368 301
a 368 302
a 368 304
a 368 305
a 368 307
a 368 176
a 368 40
a 284 217
a 284 17
a 284 352
a 284 255
a 284 361
a 284 25
a 284 256
a 284 26
a 284 269
a 284 270
a 284 271
a 284 110
a 284 273
a 284 30
a 284 275
a 284 167
a 284 370
a 284 34
a 284 119
a 284 147
a 284 6
a 284 318
a 284 7
a 284 148
a 284 149
a 284 64
a 284 65
a 284 66
a 284 80
a 284 84
a 284 138
a 284 10
a 284 102
a 284 150
a 284 151
a 284 139
a 284 103
a 284 220
a 284 386
a 284 104
a 284 228
a 284 448
a 284 141
a 284 142
a 284 105
a 284 232
a 284 154
a 284 155
a 284 106
a 284 157
a 284 158
a 284 107
a 284 14
a 284 15
a 284 133
a 284 134
a 284 16
a 284 159
a 284 404
a 284 160
a 284 96
a 284 20
a 284 236
a 284 240
a 284 21
a 284 22
a 284 127
a 284 128
a 284 161
a 284 162
a 284 163
a 284 164
a 284 247
a 284 165
a 284 322
a 284 460
a 284 362
a 284 260
a 284 261
a 284 263
a 284 264
a 284 406
a 284 265
a 284 266
a 284 323
a 284 363
a 284 461
a 284 267
a 284 28
a 284 274
a 284 366
a 284 367
a 284 278
a 284 279
a 284 329
a 284 414
a 284 282
a 284 283
a 284 32
a 284 416
a 284 417
a 284 170
a 284 286
a 284 287
a 284 288
a 284 289
a 284 290
a 284 467
a 284 419
a 284 422
a 284 35
a 284 292
a 284 111
a 284 293
a 284 294
a 284 295
a 284 296
a 284 297
a 284 36
a 284 425
a 284 37
a 284 38
a 284 172
a 284 301
a 284 394
a 284 174
a 284 429
a 284 112
a 284 175
a 284 176
a 284 135
a 284 177
a 284 178
a 284 179
a 284 136
a 284 309
a 284 40
a 284 41
a 284 113
a 284 42
a 284 43
a 284 44
a 284 45
a 284 180
a 284 46
a 284 114
a 284 47
a 284 48
a 284 49
a 284 115
a 284 50
a 284 51
a 284 52
a 284 53
a 284 54
a 284 55
a 284 181
a 284 56
a 284 57
a 284 58
a 284 59
a 284 60
a 284 311
a 284 99
a 284 183
a 284 61
a 284 62
a 284 184
a 284 63
a 284 185
a 284 299
a 284 300
a 284 302
a 284 304
a 284 306
a 284 307
a 284 428
a 284 182
a 284 116
a 295 217
a 295 346
a 295 439
a 295 348
a 295 229
a 295 448
a 295 97
a 295 406
a 295 265
a 295 273
a 295 167
a 295 284
a 295 416
a 295 393
a 295 286
a 295 287
a 295 288
a 295 289
a 295 290
a 295 292
a 295 111
a 295 293
a 295 294
a 295 6
a 295 318
a 295 148
a 295 84
a 295 10
a 295 102
a 295 220
a 295 105
a 295 232
a 295 154
a 295 155
a 295 106
a 295 107
a 295 14
a 295 133
a 295 134
a 295 16
a 295 159
a 295 17
a 295 20
a 295 236
a 295 240
a 295 21
a 295 22
a 295 127
a 295 128
a 295 164
a 295 247
a 295 251
a 295 253
a 295 322
a 295 255
a 295 256
a 295 460
a 295 261
a 295 263
a 295 264
a 295 266
a 295 323
a 295 363
a 295 271
a 295 110
a 295 28
a 295 274
a 295 366
a 295 368
a 295 279
a 295 282
a 295 32
a 295 34
a 295 467
a 295 35
a 295 291
a 295 296
a 295 297
a 295 425
a 295 394
a 295 429
a 295 112
a 295 135
a 295 179
a 295 136
a 295 41
a 295 113
a 295 42
a 295 44
a 295 46
a 295 114
a 295 47
a 295 48
a 295 49
a 295 115
a 295 50
a 295 51
a 295 52
a 295 53
a 295 54
a 295 55
a 295 181
a 295 56
a 295 57
a 295 58
a 295 59
a 295 60
a 295 99
a 295 183
a 295 61
a 295 62
a 295 63
a 295 185
a 295 37
a 295 38
a 295 172
a 295 301
a 295 302
a 295 306
a 295 307
a 295 427
a 295 144
a 295 428
a 295 308
a 296 217
a 296 346
a 296 439
a 296 149
a 296 348
a 296 151
a 296 218
a 296 378
a 296 447
a 296 448
a 296 399
a 296 141
a 296 154
a 296 106
a 296 158
a 296 134
a 296 17
a 296 352
a 296 20
a 296 239
a 296 128
a 296 256
a 296 26
a 296 362
a 296 263
a 296 406
a 296 265
a 296 27
a 296 462
a 296 271
a 296 272
a 296 110
a 296 273
a 296 274
a 296 275
a 296 167
a 296 276
a 296 168
a 296 277
a 296 409
a 296 326
a 296 279
a 296 370
a 296 280
a 296 281
a 296 283
a 296 33
a 296 34
a 296 284
a 296 416
a 296 417
a 296 418
a 296 170
a 296 393
a 296 285
a 296 372
a 296 286
a 296 287
a 296 288
a 296 289
a 296 290
a 296 331
a 296 419
a 296 468
a 296 35
a 296 291
a 296 292
a 296 111
a 296 424
a 296 293
a 296 294
a 296 295
a 296 119
a 296 147
a 296 6
a 296 148
a 296 64
a 296 65
a 296 66
a 296 84
a 296 138
a 296 10
a 296 102
a 296 150
a 296 220
a 296 142
a 296 105
a 296 232
a 296 155
a 296 107
a 296 14
a 296 15
a 296 133
a 296 16
a 296 159
a 296 160
a 296 96
a 296 236
a 296 240
a 296 21
a 296 22
a 296 127
a 296 23
a 296 161
a 296 162
a 296 164
a 296 247
a 296 165
a 296 251
a 296 322
a 296 255
a 296 25
a 296 460
a 296 261
a 296 264
a 296 266
a 296 323
a 296 363
a 296 269
a 296 28
a 296 366
a 296 30
a 296 367
a 296 368
a 296 282
a 296 32
a 296 467
a 296 297
a 296 425
a 296 38
a 296 301
a 296 394
a 296 174
a 296 429
a 296 112
a 296 175
a 296 176
a 296 135
a 296 177
a 296 178
a 296 179
a 296 136
a 296 41
a 296 113
a 296 42
a 296 43
a 296 44
a 296 180
a 296 46
a 296 114
a 296 47
a 296 48
a 296 49
a 296 115
a 296 50
a 296 51
a 296 52
a 296 53
a 296 54
a 296 55
a 296 181
a 296 56
a 296 57
a 296 58
a 296 59
a 296 60
a 296 99
a 296 183
a 296 61
a 296 62
a 296 184
a 296 63
a 296 185
a 296 37
a 296 171
a 296 299
a 296 300
a 296 172
a 296 302
a 296 304
a 296 306
a 296 307
a 296 427
a 296 144
a 296 374
a 296 428
a 296 430
a 296 431
a 296 40
a 297 217
a 297 346
a 297 439
a 297 149
a 297 348
a 297 378
a 297 229
a 297 447
a 297 448
a 297 399
a 297 232
a 297 154
a 297 106
a 297 158
a 297 17
a 297 96
a 297 20
a 297 97
a 297 143
a 297 127
a 297 128
a 297 164
a 297 165
a 297 251
a 297 255
a 297 26
a 297 263
a 297 406
a 297 265
a 297 27
a 297 269
a 297 462
a 297 271
a 297 272
a 297 110
a 297 273
a 297 274
a 297 366
a 297 275
a 297 167
a 297 276
a 297 168
a 297 277
a 297 325
a 297 409
a 297 326
a 297 278
a 297 279
a 297 384
a 297 414
a 297 370
a 297 280
a 297 281
a 297 330
a 297 283
a 297 415
a 297 32
a 297 34
a 297 284
a 297 416
a 297 417
a 297 418
a 297 170
a 297 393
a 297 285
a 297 372
a 297 286
a 297 287
a 297 288
a 297 289
a 297 290
a 297 331
a 297 419
a 297 373
a 297 422
a 297 468
a 297 423
a 297 35
a 297 291
a 297 292
a 297 111
a 297 424
a 297 293
a 297 294
a 297 295
a 297 296
a 297 119
a 297 6
a 297 318
a 297 7
a 297 148
a 297 64
a 297 65
a 297 66
a 297 80
a 297 84
a 297 138
a 297 10
a 297 102
a 297 150
a 297 151
a 297 139
a 297 103
a 297 220
a 297 386
a 297 104
a 297 228
a 297 12
a 297 13
a 297 398
a 297 141
a 297 142
a 297 105
a 297 155
a 297 157
a 297 107
a 297 14
a 297 15
a 297 133
a 297 134
a 297 16
a 297 159
a 297 404
a 297 160
a 297 352
a 297 236
a 297 237
a 297 240
a 297 21
a 297 22
a 297 23
a 297 161
a 297 162
a 297 247
a 297 359
a 297 252
a 297 253
a 297 322
a 297 361
a 297 25
a 297 256
a 297 460
a 297 362
a 297 257
a 297 258
a 297 259
a 297 260
a 297 261
a 297 262
a 297 264
a 297 266
a 297 323
a 297 363
a 297 461
a 297 267
a 297 28
a 297 30
a 297 367
a 297 328
a 297 329
a 297 282
a 297 371
a 297 33
a 297 467
a 297 470
a 297 425
a 297 37
a 297 171
a 297 38
a 297 301
a 297 306
a 297 307
a 297 394
a 297 174
a 297 428
a 297 429
a 297 112
a 297 175
a 297 375
a 297 176
a 297 431
a 297 135
a 297 177
a 297 178
a 297 179
a 297 136
a 297 309
a 297 40
a 297 41
a 297 113
a 297 42
a 297 43
a 297 44
a 297 45
a 297 46
a 297 114
a 297 47
a 297 48
a 297 49
a 297 115
a 297 50
a 297 51
a 297 52
a 297 53
a 297 54
a 297 55
a 297 181
a 297 56
a 297 57
a 297 58
a 297 59
a 297 60
a 297 311
a 297 99
a 297 183
a 297 61
a 297 396
a 297 62
a 297 184
a 297 63
a 297 185
a 297 299
a 297 300
a 297 172
a 297 302
a 297 304
a 297 173
a 297 427
a 297 144
a 297 374
a 297 430
a 297 308
a 297 182
a 297 116
a 297 436
a 425 217
a 425 97
a 425 362
a 425 276
a 425 33
a 425 284
a 425 287
a 425 289
a 425 292
a 425 111
a 425 293
a 425 294
a 425 295
a 425 296
a 425 297
a 425 148
a 425 84
a 425 10
a 425 102
a 425 106
a 425 107
a 425 16
a 425 17
a 425 236
a 425 240
a 425 21
a 425 128
a 425 164
a 425 251
a 425 253
a 425 322
a 425 255
a 425 256
a 425 460
a 425 261
a 425 263
a 425 264
a 425 406
a 425 265
a 425 271
a 425 273
a 425 274
a 425 366
a 425 167
a 425 279
a 425 281
a 425 282
a 425 283
a 425 34
a 425 286
a 425 467
a 425 470
a 425 171
a 425 307
a 425 394
a 425 112
a 425 309
a 425 41
a 425 113
a 425 42
a 425 44
a 425 46
a 425 114
a 425 47
a 425 48
a 425 49
a 425 50
a 425 51
a 425 52
a 425 53
a 425 54
a 425 55
a 425 181
a 425 56
a 425 57
a 425 58
a 425 59
a 425 60
a 425 99
a 425 183
a 425 61
a 425 62
a 425 63
a 425 185
a 425 37
a 425 38
a 425 300
a 425 172
a 425 301
a 425 302
a 425 306
a 425 144
a 425 374
a 300 217
a 300 348
a 300 276
a 300 294
a 300 119
a 300 147
a 300 137
a 300 6
a 300 318
a 300 148
a 300 345
a 300 149
a 300 64
a 300 65
a 300 66
a 300 84
a 300 138
a 300 10
a 300 102
a 300 150
a 300 151
a 300 377
a 300 220
a 300 391
a 300 104
a 300 12
a 300 13
a 300 400
a 300 141
a 300 105
a 300 232
a 300 154
a 300 106
a 300 157
a 300 158
a 300 107
a 300 14
a 300 15
a 300 133
a 300 134
a 300 16
a 300 159
a 300 160
a 300 17
a 300 319
a 300 96
a 300 236
a 300 240
a 300 21
a 300 22
a 300 127
a 300 128
a 300 161
a 300 162
a 300 163
a 300 164
a 300 165
a 300 251
a 300 253
a 300 322
a 300 255
a 300 256
a 300 26
a 300 460
a 300 263
a 300 264
a 300 406
a 300 265
a 300 266
a 300 323
a 300 363
a 300 461
a 300 269
a 300 271
a 300 110
a 300 28
a 300 29
a 300 273
a 300 274
a 300 366
a 300 30
a 300 275
a 300 167
a 300 278
a 300 368
a 300 279
a 300 329
a 300 281
a 300 282
a 300 283
a 300 32
a 300 33
a 300 34
a 300 284
a 300 286
a 300 289
a 300 422
a 300 35
a 300 111
a 300 296
a 300 297
a 300 36
a 300 425
a 300 37
a 300 38
a 300 172
a 300 301
a 300 306
a 300 307
a 300 394
a 300 174
a 300 428
a 300 429
a 300 112
a 300 175
a 300 176
a 300 135
a 300 177
a 300 178
a 300 179
a 300 136
a 300 40
a 300 41
a 300 113
a 300 42
a 300 43
a 300 44
a 300 45
a 300 180
a 300 46
a 300 114
a 300 47
a 300 48
a 300 49
a 300 115
a 300 50
a 300 51
a 300 52
a 300 53
a 300 54
a 300 55
a 300 181
a 300 56
a 300 57
a 300 58
a 300 59
a 300 60
a 300 99
a 300 183
a 300 61
a 300 396
a 300 62
a 300 184
a 300 63
a 300 185
a 301 217
a 301 346
a 301 439
a 301 348
a 301 399
a 301 15
a 301 128
a 301 267
a 301 27
a 301 269
a 301 408
a 301 462
a 301 271
a 301 272
a 301 110
a 301 273
a 301 275
a 301 167
a 301 276
a 301 168
a 301 277
a 301 409
a 301 326
a 301 278
a 301 279
a 301 411
a 301 280
a 301 281
a 301 283
a 301 415
a 301 32
a 301 34
a 301 284
a 301 285
a 301 372
a 301 288
a 301 289
a 301 290
a 301 331
a 301 419
a 301 294
a 301 296
a 301 297
a 301 470
a 301 38
a 301 300
a 301 172
a 301 119
a 301 147
a 301 6
a 301 318
a 301 7
a 301 148
a 301 345
a 301 149
a 301 64
a 301 65
a 301 66
a 301 84
a 301 138
a 301 10
a 301 102
a 301 150
a 301 151
a 301 397
a 301 218
a 301 377
a 301 441
a 301 477
a 301 378
a 301 442
a 301 139
a 301 220
a 301 446
a 301 104
a 301 222
a 301 225
a 301 228
a 301 12
a 301 13
a 301 400
a 301 141
a 301 105
a 301 232
a 301 233
a 301 154
a 301 106
a 301 157
a 301 158
a 301 107
a 301 14
a 301 133
a 301 134
a 301 16
a 301 159
a 301 160
a 301 17
a 301 96
a 301 235
a 301 455
a 301 20
a 301 236
a 301 237
a 301 240
a 301 21
a 301 22
a 301 127
a 301 161
a 301 162
a 301 163
a 301 164
a 301 247
a 301 165
a 301 253
a 301 322
a 301 255
a 301 361
a 301 25
a 301 256
a 301 26
a 301 460
a 301 362
a 301 257
a 301 258
a 301 259
a 301 261
a 301 262
a 301 263
a 301 264
a 301 406
a 301 265
a 301 266
a 301 323
a 301 363
a 301 461
a 301 28
a 301 29
a 301 274
a 301 366
a 301 30
a 301 31
a 301 368
a 301 329
a 301 282
a 301 330
a 301 33
a 301 286
a 301 422
a 301 35
a 301 292
a 301 111
a 301 295
a 301 425
a 301 37
a 301 171
a 301 299
a 301 304
a 301 306
a 301 307
a 301 144
a 301 394
a 301 174
a 301 428
a 301 429
a 301 112
a 301 175
a 301 176
a 301 135
a 301 177
a 301 178
a 301 179
a 301 136
a 301 40
a 301 41
a 301 113
a 301 42
a 301 43
a 301 44
a 301 45
a 301 180
a 301 46
a 301 114
a 301 47
a 301 48
a 301 49
a 301 115
a 301 50
a 301 51
a 301 52
a 301 53
a 301 54
a 301 55
a 301 181
a 301 56
a 301 57
a 301 58
a 301 59
a 301 60
a 301 99
a 301 183
a 301 61
a 301 396
a 301 62
a 301 184
a 301 63
a 301 185
a 301 302
a 428 217
a 428 141
a 428 154
a 428 106
a 428 158
a 428 20
a 428 128
a 428 164
a 428 165
a 428 279
a 428 280
a 428 170
a 428 286
a 428 292
a 428 294
a 428 297
a 428 300
a 428 172
a 428 301
a 428 306
a 428 307
a 428 148
a 428 64
a 428 84
a 428 10
a 428 102
a 428 105
a 428 232
a 428 107
a 428 133
a 428 16
a 428 17
a 428 236
a 428 21
a 428 22
a 428 127
a 428 251
a 428 24
a 428 322
a 428 255
a 428 256
a 428 26
a 428 460
a 428 261
a 428 263
a 428 264
a 428 406
a 428 265
a 428 266
a 428 323
a 428 363
a 428 461
a 428 269
a 428 271
a 428 110
a 428 274
a 428 366
a 428 30
a 428 275
a 428 167
a 428 282
a 428 330
a 428 32
a 428 34
a 428 284
a 428 285
a 428 287
a 428 288
a 428 289
a 428 290
a 428 111
a 428 295
a 428 296
a 428 171
a 428 38
a 428 427
a 428 394
a 428 174
a 428 429
a 428 112
a 428 135
a 428 136
a 428 474
a 428 40
a 428 41
a 428 113
a 428 42
a 428 44
a 428 46
a 428 114
a 428 47
a 428 48
a 428 49
a 428 115
a 428 50
a 428 51
a 428 52
a 428 53
a 428 54
a 428 55
a 428 181
a 428 56
a 428 57
a 428 58
a 428 59
a 428 60
a 428 99
a 428 183
a 428 61
a 428 62
a 428 184
a 428 63
a 428 185
a 428 312
a 396 217
a 396 84
a 396 151
a 396 397
a 396 218
a 396 139
a 396 219
a 396 350
a 396 446
a 396 447
a 396 450
a 396 232
a 396 157
a 396 158
a 396 107
a 396 15
a 396 403
a 396 134
a 396 404
a 396 20
a 396 236
a 396 97
a 396 143
a 396 127
a 396 128
a 396 23
a 396 271
a 396 463
a 396 28
a 396 367
a 396 279
a 396 280
a 396 170
a 396 422
a 396 468
a 396 423
a 396 291
a 396 292
a 396 293
a 396 294
a 396 297
a 396 38
a 396 300
a 396 301
a 396 144
a 396 394
a 396 174
a 396 112
a 396 175
a 396 430
a 396 308
a 396 473
a 396 135
a 396 177
a 396 178
a 396 179
a 396 474
a 396 432
a 396 40
a 396 59
a 396 148
a 396 10
a 396 12
a 396 154
a 396 106
a 396 14
a 396 133
a 396 16
a 396 159
a 396 160
a 396 240
a 396 21
a 396 22
a 396 25
a 396 110
a 396 29
a 396 273
a 396 30
a 396 35
a 396 136
a 396 309
a 396 41
a 396 42
a 396 44
a 396 114
a 396 47
a 396 48
a 396 49
a 396 115
a 396 52
a 396 53
a 396 54
a 396 55
a 396 181
a 396 56
a 396 57
a 396 60
a 396 311
a 396 61
a 396 62
a 396 184
a 396 63
a 346 119
a 346 318
a 346 7
a 346 148
a 346 439
a 346 64
a 346 65
a 346 66
a 346 84
a 346 138
a 346 10
a 346 102
a 346 150
a 346 349
a 346 220
a 346 225
a 346 12
a 346 13
a 346 105
a 346 232
a 346 154
a 346 106
a 346 107
a 346 14
a 346 15
a 346 133
a 346 134
a 346 16
a 346 159
a 346 17
a 346 319
a 346 235
a 346 236
a 346 108
a 346 240
a 346 21
a 346 22
a 346 127
a 346 128
a 346 23
a 346 161
a 346 162
a 346 164
a 346 251
a 346 252
a 346 253
a 346 24
a 346 255
a 346 256
a 346 26
a 346 460
a 346 362
a 346 259
a 346 263
a 346 264
a 346 406
a 346 265
a 346 266
a 346 363
a 346 461
a 346 407
a 346 27
a 346 269
a 346 271
a 346 110
a 346 273
a 346 274
a 346 366
a 346 30
a 346 275
a 346 167
a 346 168
a 346 277
a 346 409
a 346 278
a 346 368
a 346 279
a 346 329
a 346 280
a 346 281
a 346 282
a 346 330
a 346 283
a 346 32
a 346 34
a 346 285
a 346 286
a 346 287
a 346 288
a 346 289
a 346 290
a 346 35
a 346 292
a 346 111
a 346 294
a 346 295
a 346 296
a 346 297
a 346 171
a 346 38
a 346 172
a 346 301
a 346 306
a 346 427
a 346 174
a 346 112
a 346 175
a 346 375
a 346 176
a 346 430
a 346 135
a 346 177
a 346 179
a 346 136
a 346 39
a 346 309
a 346 40
a 346 41
a 346 113
a 346 42
a 346 43
a 346 44
a 346 45
a 346 46
a 346 114
a 346 47
a 346 48
a 346 49
a 346 115
a 346 50
a 346 51
a 346 52
a 346 53
a 346 54
a 346 55
a 346 181
a 346 56
a 346 57
a 346 58
a 346 59
a 346 60
a 346 99
a 346 183
a 346 61
a 346 62
a 346 184
a 346 63
a 346 185
a 346 348
a 346 20
a 346 272
a 346 367
a 346 276
a 346 325
a 346 307
a 439 346
a 439 318
a 439 148
a 439 10
a 439 151
a 439 446
a 439 13
a 439 107
a 439 16
a 439 17
a 439 237
a 439 21
a 439 22
a 439 127
a 439 128
a 439 164
a 439 251
a 439 252
a 439 255
a 439 361
a 439 256
a 439 26
a 439 460
a 439 362
a 439 263
a 439 264
a 439 406
a 439 265
a 439 266
a 439 363
a 439 461
a 439 271
a 439 272
a 439 110
a 439 273
a 439 274
a 439 366
a 439 464
a 439 275
a 439 167
a 439 168
a 439 279
a 439 282
a 439 371
a 439 283
a 439 33
a 439 34
a 439 285
a 439 286
a 439 289
a 439 290
a 439 467
a 439 292
a 439 111
a 439 294
a 439 295
a 439 296
a 439 297
a 439 37
a 439 171
a 439 299
a 439 38
a 439 172
a 439 301
a 439 307
a 439 41
a 439 113
a 439 42
a 439 44
a 439 46
a 439 114
a 439 47
a 439 48
a 439 49
a 439 50
a 439 51
a 439 53
a 439 54
a 439 55
a 439 181
a 439 56
a 439 57
a 439 58
a 439 59
a 439 60
a 439 61
a 439 62
a 439 63
a 439 185
a 439 31
a 439 277
a 439 298
a 349 346
a 349 151
a 349 218
a 349 377
a 349 3
a 349 318
a 349 7
a 349 8
a 349 148
a 349 10
a 349 89
a 349 397
a 349 390
a 349 441
a 349 477
a 349 139
a 349 103
a 349 219
a 349 391
a 349 104
a 349 222
a 349 231
a 349 140
a 349 141
a 349 142
a 349 154
a 349 155
a 349 107
a 349 16
a 349 17
a 349 96
a 349 20
a 349 236
a 349 237
a 349 238
a 349 239
a 349 21
a 349 127
a 349 128
a 349 164
a 349 253
a 349 24
a 349 255
a 349 25
a 349 264
a 349 30
a 349 367
a 349 412
a 349 34
a 349 40
a 349 41
a 349 113
a 349 42
a 349 43
a 349 44
a 349 46
a 349 114
a 349 47
a 349 48
a 349 49
a 349 50
a 349 54
a 349 55
a 349 181
a 349 56
a 349 57
a 349 58
a 349 59
a 349 60
a 349 61
a 349 62
a 349 63
a 349 185
a 349 220
a 349 386
a 349 350
a 349 153
a 349 445
a 349 446
a 349 229
a 349 230
a 349 398
a 349 449
a 349 399
a 349 400
a 349 401
a 349 402
a 349 451
a 349 232
a 349 108
a 349 98
a 349 249
a 349 373
a 349 422
a 349 37
a 349 299
a 349 38
a 349 303
a 349 304
a 349 173
a 349 144
a 349 394
a 349 308
a 349 473
a 349 39
a 349 433
a 259 346
a 259 402
a 259 17
a 259 18
a 259 19
a 259 96
a 259 20
a 259 236
a 259 237
a 259 97
a 259 108
a 259 320
a 259 240
a 259 22
a 259 128
a 259 246
a 259 356
a 259 247
a 259 255
a 259 361
a 259 25
a 259 480
a 259 256
a 259 26
a 259 460
a 259 362
a 259 257
a 259 258
a 259 6
a 259 315
a 259 316
a 259 318
a 259 7
a 259 148
a 259 10
a 259 101
a 259 16
a 259 21
a 259 127
a 259 253
a 259 260
a 259 261
a 259 262
a 259 28
a 259 29
a 259 275
a 259 279
a 259 283
a 259 32
a 259 34
a 259 467
a 259 394
a 259 41
a 259 113
a 259 42
a 259 43
a 259 44
a 259 46
a 259 114
a 259 47
a 259 48
a 259 49
a 259 115
a 259 50
a 259 51
a 259 52
a 259 53
a 259 54
a 259 55
a 259 181
a 259 56
a 259 57
a 259 58
a 259 59
a 259 60
a 259 61
a 259 62
a 259 184
a 259 63
a 259 185
a 259 263
a 259 264
a 259 406
a 259 265
a 259 266
a 259 323
a 259 363
a 259 461
a 259 364
a 259 365
a 259 267
a 259 268
a 259 27
a 259 269
a 259 408
a 259 270
a 259 271
a 259 272
a 259 110
a 259 273
a 259 274
a 259 366
a 259 30
a 259 464
a 259 367
a 259 167
a 259 326
a 259 328
a 259 278
a 259 329
a 259 280
a 259 371
a 259 33
a 259 170
a 259 285
a 259 288
a 259 289
a 259 290
a 259 291
a 259 292
a 259 297
a 259 36
a 259 470
a 259 37
a 259 171
a 259 38
a 259 172
a 259 301
a 259 375
a 259 308
a 259 432
a 259 309
a 375 346
a 375 143
a 375 128
a 375 162
a 375 251
a 375 366
a 375 167
a 375 279
a 375 416
a 375 170
a 375 286
a 375 289
a 375 290
a 375 294
a 375 297
a 375 306
a 375 307
a 375 174
a 375 112
a 375 175
a 375 7
a 375 10
a 375 397
a 375 12
a 375 107
a 375 16
a 375 17
a 375 21
a 375 22
a 375 253
a 375 322
a 375 255
a 375 25
a 375 257
a 375 258
a 375 259
a 375 261
a 375 262
a 375 263
a 375 406
a 375 265
a 375 363
a 375 269
a 375 28
a 375 367
a 375 34
a 375 394
a 375 430
a 375 39
a 375 309
a 375 40
a 375 41
a 375 113
a 375 42
a 375 43
a 375 44
a 375 46
a 375 114
a 375 47
a 375 48
a 375 49
a 375 50
a 375 51
a 375 52
a 375 53
a 375 54
a 375 55
a 375 181
a 375 56
a 375 57
a 375 58
a 375 59
a 375 60
a 375 61
a 375 62
a 375 63
a 375 185
a 375 176
a 375 177
a 375 182
a 375 116
a 430 346
a 430 108
a 430 98
a 430 143
a 430 128
a 430 162
a 430 366
a 430 170
a 430 289
a 430 174
a 430 112
a 430 175
a 430 375
a 430 176
a 430 137
a 430 148
a 430 64
a 430 84
a 430 10
a 430 102
a 430 397
a 430 218
a 430 378
a 430 220
a 430 12
a 430 141
a 430 105
a 430 232
a 430 106
a 430 107
a 430 133
a 430 16
a 430 404
a 430 17
a 430 20
a 430 236
a 430 240
a 430 21
a 430 22
a 430 392
a 430 164
a 430 251
a 430 322
a 430 255
a 430 25
a 430 460
a 430 261
a 430 263
a 430 264
a 430 406
a 430 265
a 430 363
a 430 271
a 430 110
a 430 28
a 430 274
a 430 367
a 430 167
a 430 279
a 430 34
a 430 111
a 430 296
a 430 297
a 430 394
a 430 39
a 430 309
a 430 40
a 430 41
a 430 113
a 430 42
a 430 43
a 430 44
a 430 45
a 430 46
a 430 114
a 430 47
a 430 48
a 430 49
a 430 115
a 430 50
a 430 51
a 430 52
a 430 53
a 430 54
a 430 55
a 430 181
a 430 56
a 430 57
a 430 58
a 430 59
a 430 60
a 430 99
a 430 61
a 430 396
a 430 62
a 430 63
a 430 185
a 446 439
a 446 151
a 446 220
a 446 350
a 446 318
a 446 148
a 446 10
a 446 89
a 446 102
a 446 397
a 446 218
a 446 390
a 446 478
a 446 349
a 446 477
a 446 378
a 446 139
a 446 103
a 446 219
a 446 445
a 446 483
a 446 391
a 446 12
a 446 13
a 446 142
a 446 105
a 446 232
a 446 106
a 446 107
a 446 133
a 446 134
a 446 16
a 446 17
a 446 20
a 446 236
a 446 238
a 446 239
a 446 240
a 446 21
a 446 22
a 446 127
a 446 128
a 446 392
a 446 253
a 446 255
a 446 25
a 446 256
a 446 263
a 446 264
a 446 363
a 446 461
a 446 271
a 446 272
a 446 274
a 446 368
a 446 279
a 446 412
a 446 281
a 446 32
a 446 34
a 446 469
a 446 38
a 446 112
a 446 136
a 446 432
a 446 41
a 446 113
a 446 42
a 446 43
a 446 44
a 446 46
a 446 114
a 446 47
a 446 49
a 446 115
a 446 50
a 446 51
a 446 52
a 446 53
a 446 54
a 446 55
a 446 181
a 446 56
a 446 57
a 446 58
a 446 59
a 446 60
a 446 99
a 446 183
a 446 61
a 446 396
a 446 62
a 446 63
a 446 185
a 446 222
a 446 223
a 446 230
a 446 398
a 446 449
a 446 399
a 446 400
a 446 401
a 446 402
a 446 451
a 446 23
a 446 458
a 446 161
a 446 459
a 446 162
a 446 164
a 446 26
a 446 324
a 446 110
a 446 464
a 446 167
a 446 168
a 446 31
a 446 277
a 446 291
a 446 294
a 446 298
a 446 299
a 446 301
a 446 472
a 446 306
a 446 135
a 446 178
a 237 439
a 237 347
a 237 101
a 237 151
a 237 397
a 237 218
a 237 377
a 237 441
a 237 349
a 237 378
a 237 442
a 237 139
a 237 219
a 237 220
a 237 386
a 237 391
a 237 12
a 237 229
a 237 447
a 237 398
a 237 140
a 237 141
a 237 142
a 237 232
a 237 233
a 237 106
a 237 158
a 237 134
a 237 484
a 237 160
a 237 17
a 237 319
a 237 96
a 237 352
a 237 20
a 237 236
a 237 6
a 237 314
a 237 315
a 237 316
a 237 318
a 237 317
a 237 7
a 237 8
a 237 148
a 237 64
a 237 74
a 237 80
a 237 83
a 237 84
a 237 10
a 237 90
a 237 91
a 237 102
a 237 105
a 237 154
a 237 155
a 237 107
a 237 16
a 237 18
a 237 19
a 237 455
a 237 108
a 237 320
a 237 240
a 237 21
a 237 485
a 237 127
a 237 128
a 237 163
a 237 164
a 237 166
a 237 253
a 237 24
a 237 255
a 237 256
a 237 362
a 237 257
a 237 258
a 237 259
a 237 261
a 237 406
a 237 129
a 237 324
a 237 110
a 237 275
a 237 279
a 237 280
a 237 281
a 237 32
a 237 34
a 237 285
a 237 467
a 237 111
a 237 38
a 237 307
a 237 394
a 237 429
a 237 41
a 237 113
a 237 42
a 237 43
a 237 44
a 237 45
a 237 46
a 237 114
a 237 47
a 237 48
a 237 49
a 237 115
a 237 50
a 237 51
a 237 52
a 237 53
a 237 54
a 237 55
a 237 181
a 237 56
a 237 57
a 237 58
a 237 59
a 237 60
a 237 99
a 237 183
a 237 61
a 237 62
a 237 184
a 237 63
a 237 185
a 237 239
a 237 242
a 237 22
a 237 353
a 237 23
a 237 456
a 237 457
a 237 252
a 237 254
a 237 263
a 237 264
a 237 265
a 237 130
a 237 30
a 237 167
a 237 277
a 237 412
a 237 370
a 237 33
a 237 289
a 237 331
a 237 291
a 237 293
a 237 294
a 237 297
a 237 36
a 237 37
a 237 171
a 237 301
a 237 112
a 237 308
a 237 473
a 237 135
a 237 177
a 237 178
a 237 179
a 237 40
a 361 439
a 361 17
a 361 18
a 361 20
a 361 246
a 361 255
a 361 314
a 361 316
a 361 318
a 361 7
a 361 8
a 361 148
a 361 10
a 361 151
a 361 397
a 361 104
a 361 228
a 361 13
a 361 141
a 361 107
a 361 16
a 361 96
a 361 236
a 361 21
a 361 164
a 361 166
a 361 251
a 361 253
a 361 24
a 361 322
a 361 256
a 361 460
a 361 257
a 361 259
a 361 260
a 361 261
a 361 262
a 361 265
a 361 271
a 361 110
a 361 274
a 361 366
a 361 30
a 361 275
a 361 167
a 361 279
a 361 281
a 361 282
a 361 330
a 361 283
a 361 415
a 361 32
a 361 34
a 361 284
a 361 467
a 361 35
a 361 394
a 361 41
a 361 113
a 361 42
a 361 43
a 361 44
a 361 46
a 361 114
a 361 47
a 361 48
a 361 49
a 361 50
a 361 52
a 361 53
a 361 54
a 361 55
a 361 181
a 361 56
a 361 57
a 361 58
a 361 59
a 361 60
a 361 61
a 361 62
a 361 184
a 361 63
a 361 185
a 361 25
a 361 26
a 361 362
a 361 258
a 361 263
a 361 264
a 361 406
a 361 266
a 361 323
a 361 363
a 361 461
a 361 407
a 361 267
a 361 268
a 361 27
a 361 269
a 361 270
a 361 272
a 361 28
a 361 464
a 361 367
a 361 31
a 361 369
a 361 371
a 361 292
a 361 297
a 361 171
a 361 38
a 361 301
a 361 304
a 272 439
a 272 149
a 272 348
a 272 446
a 272 391
a 272 12
a 272 398
a 272 127
a 272 128
a 272 164
a 272 255
a 272 256
a 272 26
a 272 265
a 272 323
a 272 324
a 272 364
a 272 268
a 272 27
a 272 269
a 272 271
a 272 119
a 272 6
a 272 314
a 272 318
a 272 7
a 272 148
a 272 346
a 272 64
a 272 65
a 272 66
a 272 84
a 272 138
a 272 10
a 272 102
a 272 377
a 272 220
a 272 386
a 272 104
a 272 228
a 272 13
a 272 400
a 272 141
a 272 142
a 272 105
a 272 232
a 272 154
a 272 106
a 272 158
a 272 107
a 272 14
a 272 133
a 272 134
a 272 16
a 272 159
a 272 160
a 272 17
a 272 319
a 272 96
a 272 235
a 272 20
a 272 236
a 272 108
a 272 240
a 272 21
a 272 242
a 272 22
a 272 23
a 272 166
a 272 251
a 272 252
a 272 253
a 272 254
a 272 361
a 272 25
a 272 460
a 272 362
a 272 257
a 272 259
a 272 260
a 272 261
a 272 263
a 272 264
a 272 406
a 272 266
a 272 363
a 272 461
a 272 110
a 272 29
a 272 273
a 272 274
a 272 366
a 272 30
a 272 464
a 272 367
a 272 167
a 272 168
a 272 169
a 272 278
a 272 368
a 272 279
a 272 281
a 272 282
a 272 283
a 272 32
a 272 33
a 272 34
a 272 285
a 272 289
a 272 290
a 272 331
a 272 467
a 272 35
a 272 291
a 272 292
a 272 111
a 272 296
a 272 297
a 272 36
a 272 37
a 272 298
a 272 299
a 272 38
a 272 301
a 272 307
a 272 394
a 272 174
a 272 429
a 272 112
a 272 175
a 272 135
a 272 178
a 272 179
a 272 136
a 272 309
a 272 41
a 272 113
a 272 42
a 272 43
a 272 44
a 272 45
a 272 46
a 272 114
a 272 47
a 272 48
a 272 49
a 272 115
a 272 50
a 272 51
a 272 52
a 272 53
a 272 54
a 272 55
a 272 181
a 272 56
a 272 57
a 272 58
a 272 59
a 272 60
a 272 99
a 272 183
a 272 61
a 272 62
a 272 184
a 272 63
a 272 185
a 272 28
a 272 275
a 272 31
a 272 277
a 272 327
a 272 328
a 272 286
a 272 421
a 272 468
a 272 294
a 272 171
a 272 426
a 272 172
a 272 304
a 272 471
a 272 472
a 272 173
a 272 427
a 272 432
a 371 439
a 371 128
a 371 255
a 371 256
a 371 26
a 371 258
a 371 261
a 371 406
a 371 266
a 371 323
a 371 363
a 371 364
a 371 365
a 371 407
a 371 267
a 371 268
a 371 27
a 371 269
a 371 408
a 371 462
a 371 270
a 371 463
a 371 28
a 371 273
a 371 366
a 371 30
a 371 275
a 371 167
a 371 31
a 371 277
a 371 328
a 371 278
a 371 368
a 371 279
a 371 329
a 371 369
a 371 411
a 371 413
a 371 370
a 371 280
a 371 281
a 371 330
a 371 316
a 371 7
a 371 148
a 371 10
a 371 104
a 371 225
a 371 228
a 371 107
a 371 16
a 371 17
a 371 20
a 371 21
a 371 246
a 371 251
a 371 253
a 371 361
a 371 460
a 371 257
a 371 259
a 371 260
a 371 264
a 371 282
a 371 283
a 371 32
a 371 34
a 371 331
a 371 467
a 371 394
a 371 41
a 371 113
a 371 42
a 371 44
a 371 46
a 371 114
a 371 47
a 371 48
a 371 49
a 371 115
a 371 50
a 371 52
a 371 53
a 371 54
a 371 55
a 371 181
a 371 56
a 371 57
a 371 58
a 371 59
a 371 60
a 371 61
a 371 62
a 371 63
a 371 185
a 371 33
a 371 418
a 371 285
a 371 420
a 371 422
a 371 292
a 371 294
a 371 297
a 371 38
a 371 304
a 371 306
a 371 307
a 371 176
a 467 439
a 467 17
a 467 18
a 467 19
a 467 20
a 467 236
a 467 237
a 467 97
a 467 320
a 467 164
a 467 251
a 467 255
a 467 361
a 467 25
a 467 480
a 467 256
a 467 26
a 467 362
a 467 257
a 467 258
a 467 259
a 467 260
a 467 261
a 467 262
a 467 263
a 467 264
a 467 406
a 467 265
a 467 266
a 467 323
a 467 363
a 467 407
a 467 267
a 467 27
a 467 269
a 467 270
a 467 271
a 467 272
a 467 110
a 467 28
a 467 366
a 467 30
a 467 275
a 467 167
a 467 276
a 467 168
a 467 31
a 467 279
a 467 369
a 467 280
a 467 281
a 467 371
a 467 283
a 467 32
a 467 33
a 467 34
a 467 284
a 467 393
a 467 287
a 467 289
a 467 331
a 467 318
a 467 148
a 467 10
a 467 102
a 467 104
a 467 228
a 467 13
a 467 107
a 467 16
a 467 240
a 467 21
a 467 128
a 467 24
a 467 460
a 467 290
a 467 394
a 467 41
a 467 113
a 467 42
a 467 43
a 467 44
a 467 46
a 467 114
a 467 47
a 467 48
a 467 49
a 467 50
a 467 51
a 467 52
a 467 53
a 467 54
a 467 55
a 467 181
a 467 56
a 467 57
a 467 58
a 467 59
a 467 60
a 467 99
a 467 183
a 467 61
a 467 62
a 467 63
a 467 185
a 467 291
a 467 292
a 467 293
a 467 294
a 467 295
a 467 296
a 467 297
a 467 36
a 467 470
a 467 425
a 467 37
a 467 38
a 467 304
a 467 144
a 299 439
a 299 221
a 299 104
a 299 225
a 299 451
a 299 164
a 299 256
a 299 26
a 299 264
a 299 129
a 299 27
a 299 269
a 299 272
a 299 28
a 299 464
a 299 167
a 299 168
a 299 31
a 299 169
a 299 277
a 299 327
a 299 328
a 299 279
a 299 411
a 299 281
a 299 283
a 299 34
a 299 285
a 299 294
a 299 298
a 299 426
a 299 119
a 299 147
a 299 6
a 299 318
a 299 148
a 299 149
a 299 64
a 299 65
a 299 66
a 299 84
a 299 138
a 299 10
a 299 102
a 299 150
a 299 151
a 299 377
a 299 349
a 299 378
a 299 220
a 299 446
a 299 391
a 299 222
a 299 400
a 299 105
a 299 232
a 299 154
a 299 106
a 299 157
a 299 158
a 299 107
a 299 14
a 299 15
a 299 133
a 299 134
a 299 16
a 299 159
a 299 160
a 299 17
a 299 319
a 299 96
a 299 20
a 299 236
a 299 240
a 299 21
a 299 242
a 299 22
a 299 127
a 299 128
a 299 23
a 299 161
a 299 162
a 299 163
a 299 165
a 299 251
a 299 252
a 299 253
a 299 254
a 299 322
a 299 255
a 299 460
a 299 362
a 299 260
a 299 261
a 299 263
a 299 265
a 299 266
a 299 323
a 299 363
a 299 461
a 299 365
a 299 407
a 299 268
a 299 271
a 299 110
a 299 29
a 299 273
a 299 274
a 299 366
a 299 30
a 299 275
a 299 278
a 299 368
a 299 329
a 299 282
a 299 415
a 299 32
a 299 33
a 299 284
a 299 288
a 299 289
a 299 331
a 299 373
a 299 420
a 299 422
a 299 423
a 299 35
a 299 291
a 299 292
a 299 111
a 299 296
a 299 297
a 299 36
a 299 37
a 299 38
a 299 172
a 299 173
a 299 307
a 299 394
a 299 174
a 299 429
a 299 112
a 299 175
a 299 176
a 299 135
a 299 177
a 299 178
a 299 179
a 299 136
a 299 309
a 299 41
a 299 113
a 299 42
a 299 43
a 299 44
a 299 45
a 299 180
a 299 46
a 299 114
a 299 47
a 299 48
a 299 49
a 299 115
a 299 50
a 299 51
a 299 52
a 299 53
a 299 54
a 299 55
a 299 181
a 299 56
a 299 57
a 299 58
a 299 59
a 299 60
a 299 311
a 299 99
a 299 183
a 299 61
a 299 62
a 299 184
a 299 63
a 299 185
a 299 301
a 299 303
a 299 472
a 299 305
a 261 348
a 261 378
a 261 223
a 261 398
a 261 399
a 261 400
a 261 451
a 261 141
a 261 154
a 261 155
a 261 107
a 261 134
a 261 405
a 261 17
a 261 18
a 261 19
a 261 96
a 261 20
a 261 236
a 261 237
a 261 97
a 261 108
a 261 98
a 261 320
a 261 143
a 261 240
a 261 21
a 261 128
a 261 162
a 261 164
a 261 246
a 261 247
a 261 251
a 261 254
a 261 255
a 261 361
a 261 25
a 261 479
a 261 256
a 261 26
a 261 460
a 261 362
a 261 257
a 261 258
a 261 259
a 261 260
a 261 6
a 261 314
a 261 315
a 261 316
a 261 318
a 261 7
a 261 8
a 261 148
a 261 10
a 261 104
a 261 12
a 261 16
a 261 127
a 261 23
a 261 166
a 261 253
a 261 322
a 261 262
a 261 263
a 261 406
a 261 265
a 261 271
a 261 110
a 261 28
a 261 29
a 261 274
a 261 366
a 261 275
a 261 167
a 261 279
a 261 280
a 261 281
a 261 282
a 261 371
a 261 283
a 261 32
a 261 34
a 261 290
a 261 467
a 261 292
a 261 394
a 261 39
a 261 40
a 261 41
a 261 113
a 261 42
a 261 43
a 261 44
a 261 46
a 261 114
a 261 47
a 261 48
a 261 49
a 261 115
a 261 50
a 261 51
a 261 52
a 261 53
a 261 54
a 261 55
a 261 181
a 261 56
a 261 57
a 261 58
a 261 59
a 261 60
a 261 61
a 261 62
a 261 184
a 261 63
a 261 185
a 261 264
a 261 266
a 261 323
a 261 363
a 261 461
a 261 129
a 261 365
a 261 267
a 261 268
a 261 27
a 261 269
a 261 408
a 261 462
a 261 270
a 261 272
a 261 273
a 261 30
a 261 367
a 261 276
a 261 168
a 261 409
a 261 369
a 261 411
a 261 412
a 261 414
a 261 370
a 261 33
a 261 284
a 261 416
a 261 170
a 261 285
a 261 286
a 261 287
a 261 288
a 261 289
a 261 331
a 261 419
a 261 35
a 261 291
a 261 293
a 261 294
a 261 295
a 261 296
a 261 297
a 261 36
a 261 470
a 261 425
a 261 37
a 261 171
a 261 299
a 261 38
a 261 172
a 261 301
a 261 302
a 261 303
a 261 304
a 261 306
a 261 307
a 261 427
a 261 144
a 261 374
a 261 174
a 261 428
a 261 429
a 261 112
a 261 175
a 261 375
a 261 176
a 261 430
a 261 177
a 261 432
a 67 64
a 67 65
a 67 122
a 67 123
a 67 2
a 67 5
a 67 3
a 67 4
a 67 1
a 67 119
a 67 145
a 67 120
a 67 132
a 67 121
a 67 318
a 67 148
a 67 66
a 67 68
a 67 74
a 67 80
a 67 81
a 67 83
a 67 85
a 67 10
a 67 126
a 67 88
a 67 93
a 67 95
a 67 220
a 67 386
a 67 13
a 67 154
a 67 155
a 67 106
a 67 107
a 67 134
a 67 16
a 67 17
a 67 20
a 67 108
a 67 98
a 67 21
a 67 22
a 67 127
a 67 128
a 67 23
a 67 109
a 67 253
a 67 255
a 67 25
a 67 129
a 67 324
a 67 130
a 67 275
a 67 367
a 67 279
a 67 384
a 67 281
a 67 282
a 67 32
a 67 34
a 67 285
a 67 38
a 67 41
a 67 113
a 67 42
a 67 43
a 67 44
a 67 46
a 67 114
a 67 47
a 67 48
a 67 49
a 67 115
a 67 50
a 67 51
a 67 52
a 67 53
a 67 54
a 67 55
a 67 181
a 67 56
a 67 57
a 67 58
a 67 59
a 67 60
a 67 311
a 67 183
a 67 61
a 67 62
a 67 184
a 67 63
a 67 185
a 67 124
a 67 69
a 67 70
a 67 71
a 67 72
a 67 73
a 67 75
a 67 76
a 67 77
a 67 78
a 67 79
a 67 82
a 67 84
a 67 387
a 67 89
a 67 91
a 67 101
a 67 94
a 67 236
a 67 97
a 67 320
a 67 143
a 67 182
a 67 312
a 67 116
a 67 385
a 67 313
a 71 64
a 71 65
a 71 66
a 71 125
a 71 69
a 71 70
a 71 4
a 71 1
a 71 100
a 71 119
a 71 120
a 71 132
a 71 121
a 71 147
a 71 137
a 71 6
a 71 7
a 71 148
a 71 9
a 71 382
a 71 67
a 71 72
a 71 73
a 71 74
a 71 80
a 71 81
a 71 83
a 71 10
a 71 126
a 71 88
a 71 90
a 71 93
a 71 95
a 71 152
a 71 153
a 71 13
a 71 154
a 71 155
a 71 107
a 71 134
a 71 16
a 71 17
a 71 18
a 71 19
a 71 20
a 71 97
a 71 108
a 71 98
a 71 21
a 71 22
a 71 128
a 71 23
a 71 164
a 71 109
a 71 253
a 71 25
a 71 129
a 71 130
a 71 28
a 71 367
a 71 31
a 71 384
a 71 34
a 71 36
a 71 41
a 71 113
a 71 42
a 71 43
a 71 44
a 71 45
a 71 46
a 71 114
a 71 47
a 71 48
a 71 49
a 71 115
a 71 50
a 71 51
a 71 52
a 71 53
a 71 54
a 71 55
a 71 181
a 71 56
a 71 57
a 71 58
a 71 59
a 71 60
a 71 61
a 71 62
a 71 63
a 71 185
a 71 75
a 71 76
a 71 77
a 71 82
a 71 84
a 71 138
a 71 92
a 71 94
a 71 182
a 71 312
a 71 116
a 71 385
a 71 313
a 73 64
a 73 382
a 73 70
a 73 71
a 73 72
a 73 383
a 73 2
a 73 5
a 73 3
a 73 4
a 73 1
a 73 100
a 73 119
a 73 145
a 73 120
a 73 132
a 73 121
a 73 147
a 73 137
a 73 7
a 73 148
a 73 65
a 73 66
a 73 122
a 73 123
a 73 67
a 73 68
a 73 74
a 73 76
a 73 78
a 73 79
a 73 80
a 73 81
a 73 83
a 73 84
a 73 85
a 73 10
a 73 126
a 73 88
a 73 90
a 73 91
a 73 101
a 73 93
a 73 94
a 73 95
a 73 102
a 73 220
a 73 386
a 73 104
a 73 228
a 73 13
a 73 105
a 73 232
a 73 154
a 73 155
a 73 106
a 73 158
a 73 107
a 73 14
a 73 133
a 73 134
a 73 16
a 73 159
a 73 17
a 73 319
a 73 20
a 73 236
a 73 97
a 73 108
a 73 98
a 73 21
a 73 22
a 73 127
a 73 128
a 73 23
a 73 164
a 73 109
a 73 253
a 73 255
a 73 129
a 73 324
a 73 130
a 73 367
a 73 279
a 73 384
a 73 281
a 73 282
a 73 32
a 73 34
a 73 285
a 73 35
a 73 111
a 73 36
a 73 37
a 73 38
a 73 307
a 73 112
a 73 179
a 73 136
a 73 41
a 73 113
a 73 42
a 73 43
a 73 44
a 73 45
a 73 46
a 73 114
a 73 47
a 73 48
a 73 49
a 73 115
a 73 50
a 73 51
a 73 52
a 73 53
a 73 54
a 73 55
a 73 181
a 73 56
a 73 57
a 73 58
a 73 59
a 73 60
a 73 311
a 73 99
a 73 183
a 73 61
a 73 62
a 73 184
a 73 63
a 73 185
a 73 82
a 73 182
a 73 312
a 73 116
a 73 385
a 73 313
a 93 64
a 93 65
a 93 66
a 93 382
a 93 123
a 93 67
a 93 68
a 93 125
a 93 69
a 93 70
a 93 71
a 93 72
a 93 383
a 93 73
a 93 74
a 93 75
a 93 76
a 93 77
a 93 78
a 93 79
a 93 81
a 93 82
a 93 83
a 93 84
a 93 85
a 93 387
a 93 126
a 93 88
a 93 89
a 93 90
a 93 91
a 93 101
a 93 92
a 93 2
a 93 3
a 93 4
a 93 117
a 93 1
a 93 100
a 93 119
a 93 145
a 93 120
a 93 132
a 93 121
a 93 137
a 93 318
a 93 7
a 93 148
a 93 122
a 93 80
a 93 10
a 93 95
a 93 102
a 93 151
a 93 220
a 93 386
a 93 105
a 93 154
a 93 155
a 93 106
a 93 107
a 93 134
a 93 16
a 93 17
a 93 20
a 93 108
a 93 98
a 93 320
a 93 21
a 93 22
a 93 128
a 93 23
a 93 164
a 93 109
a 93 253
a 93 25
a 93 129
a 93 324
a 93 130
a 93 28
a 93 275
a 93 367
a 93 279
a 93 384
a 93 281
a 93 282
a 93 32
a 93 34
a 93 38
a 93 41
a 93 113
a 93 42
a 93 43
a 93 44
a 93 46
a 93 114
a 93 47
a 93 48
a 93 49
a 93 115
a 93 50
a 93 51
a 93 52
a 93 53
a 93 54
a 93 55
a 93 181
a 93 56
a 93 57
a 93 58
a 93 59
a 93 60
a 93 99
a 93 183
a 93 61
a 93 62
a 93 63
a 93 185
a 93 94
a 93 18
a 93 19
a 93 182
a 93 312
a 93 116
a 93 385
a 93 313
a 95 64
a 95 65
a 95 66
a 95 382
a 95 122
a 95 123
a 95 67
a 95 124
a 95 68
a 95 125
a 95 69
a 95 70
a 95 71
a 95 72
a 95 383
a 95 73
a 95 75
a 95 76
a 95 77
a 95 78
a 95 81
a 95 82
a 95 83
a 95 84
a 95 85
a 95 387
a 95 86
a 95 126
a 95 88
a 95 91
a 95 101
a 95 92
a 95 93
a 95 94
a 95 2
a 95 5
a 95 3
a 95 4
a 95 1
a 95 100
a 95 119
a 95 145
a 95 120
a 95 146
a 95 132
a 95 121
a 95 147
a 95 137
a 95 318
a 95 7
a 95 148
a 95 74
a 95 79
a 95 80
a 95 87
a 95 138
a 95 10
a 95 89
a 95 90
a 95 102
a 95 220
a 95 386
a 95 152
a 95 104
a 95 228
a 95 13
a 95 105
a 95 232
a 95 233
a 95 154
a 95 155
a 95 106
a 95 158
a 95 107
a 95 14
a 95 133
a 95 134
a 95 16
a 95 159
a 95 17
a 95 319
a 95 96
a 95 20
a 95 236
a 95 97
a 95 108
a 95 98
a 95 320
a 95 143
a 95 21
a 95 22
a 95 127
a 95 128
a 95 23
a 95 164
a 95 109
a 95 251
a 95 253
a 95 255
a 95 25
a 95 129
a 95 324
a 95 130
a 95 28
a 95 367
a 95 167
a 95 279
a 95 384
a 95 281
a 95 282
a 95 34
a 95 285
a 95 35
a 95 111
a 95 36
a 95 37
a 95 38
a 95 307
a 95 174
a 95 112
a 95 175
a 95 176
a 95 135
a 95 177
a 95 179
a 95 136
a 95 41
a 95 113
a 95 42
a 95 43
a 95 44
a 95 45
a 95 46
a 95 114
a 95 47
a 95 48
a 95 49
a 95 115
a 95 50
a 95 51
a 95 52
a 95 53
a 95 54
a 95 55
a 95 181
a 95 56
a 95 57
a 95 58
a 95 59
a 95 60
a 95 99
a 95 183
a 95 61
a 95 62
a 95 184
a 95 63
a 95 185
a 95 182
a 95 312
a 95 116
a 95 313
a 219 64
a 219 65
a 219 151
a 219 397
a 219 218
a 219 377
a 219 441
a 219 478
a 219 349
a 219 378
a 219 139
a 219 103
a 219 443
a 219 444
a 219 482
a 219 481
a 219 3
a 219 117
a 219 6
a 219 318
a 219 148
a 219 80
a 219 84
a 219 10
a 219 102
a 219 390
a 219 477
a 219 487
a 219 220
a 219 386
a 219 12
a 219 232
a 219 154
a 219 155
a 219 106
a 219 158
a 219 107
a 219 14
a 219 133
a 219 134
a 219 16
a 219 159
a 219 17
a 219 319
a 219 352
a 219 20
a 219 236
a 219 237
a 219 238
a 219 239
a 219 320
a 219 240
a 219 21
a 219 22
a 219 127
a 219 128
a 219 23
a 219 164
a 219 253
a 219 255
a 219 25
a 219 256
a 219 110
a 219 167
a 219 326
a 219 327
a 219 412
a 219 282
a 219 34
a 219 111
a 219 38
a 219 429
a 219 112
a 219 179
a 219 136
a 219 475
a 219 432
a 219 41
a 219 113
a 219 42
a 219 43
a 219 44
a 219 45
a 219 46
a 219 114
a 219 47
a 219 48
a 219 49
a 219 115
a 219 50
a 219 51
a 219 52
a 219 53
a 219 54
a 219 55
a 219 181
a 219 56
a 219 57
a 219 58
a 219 59
a 219 60
a 219 99
a 219 183
a 219 61
a 219 396
a 219 62
a 219 184
a 219 63
a 219 185
a 219 350
a 219 152
a 219 153
a 219 445
a 219 446
a 219 391
a 219 229
a 219 230
a 219 398
a 219 231
a 219 449
a 219 399
a 219 402
a 219 451
a 219 96
a 219 97
a 219 108
a 219 98
a 219 143
a 219 353
a 219 456
a 219 243
a 219 457
a 219 458
a 219 459
a 219 162
a 219 163
a 219 298
a 219 303
a 219 472
a 219 305
a 219 173
a 219 394
a 219 135
a 219 474
a 219 39
a 219 40
a 219 435
a 219 312
a 219 385
a 98 64
a 98 65
a 98 66
a 98 382
a 98 122
a 98 123
a 98 67
a 98 124
a 98 68
a 98 125
a 98 69
a 98 70
a 98 71
a 98 72
a 98 383
a 98 73
a 98 74
a 98 75
a 98 76
a 98 77
a 98 78
a 98 79
a 98 80
a 98 81
a 98 82
a 98 83
a 98 84
a 98 85
a 98 387
a 98 86
a 98 138
a 98 10
a 98 126
a 98 88
a 98 89
a 98 90
a 98 101
a 98 92
a 98 93
a 98 440
a 98 94
a 98 95
a 98 477
a 98 378
a 98 350
a 98 17
a 98 19
a 98 96
a 98 352
a 98 20
a 98 97
a 98 108
a 98 4
a 98 1
a 98 100
a 98 119
a 98 120
a 98 132
a 98 6
a 98 314
a 98 316
a 98 318
a 98 317
a 98 7
a 98 8
a 98 148
a 98 91
a 98 102
a 98 151
a 98 218
a 98 349
a 98 139
a 98 219
a 98 386
a 98 483
a 98 104
a 98 140
a 98 141
a 98 105
a 98 232
a 98 233
a 98 154
a 98 155
a 98 106
a 98 107
a 98 14
a 98 403
a 98 133
a 98 134
a 98 16
a 98 159
a 98 18
a 98 319
a 98 236
a 98 238
a 98 239
a 98 320
a 98 143
a 98 240
a 98 21
a 98 22
a 98 127
a 98 128
a 98 23
a 98 164
a 98 109
a 98 251
a 98 255
a 98 256
a 98 362
a 98 258
a 98 261
a 98 264
a 98 406
a 98 265
a 98 266
a 98 129
a 98 324
a 98 27
a 98 271
a 98 130
a 98 110
a 98 273
a 98 30
a 98 275
a 98 367
a 98 167
a 98 280
a 98 281
a 98 330
a 98 32
a 98 34
a 98 372
a 98 288
a 98 289
a 98 292
a 98 111
a 98 171
a 98 38
a 98 307
a 98 394
a 98 429
a 98 112
a 98 175
a 98 176
a 98 430
a 98 308
a 98 135
a 98 177
a 98 179
a 98 136
a 98 39
a 98 309
a 98 41
a 98 113
a 98 42
a 98 43
a 98 44
a 98 45
a 98 46
a 98 114
a 98 47
a 98 48
a 98 49
a 98 115
a 98 50
a 98 51
a 98 52
a 98 53
a 98 54
a 98 55
a 98 181
a 98 56
a 98 57
a 98 58
a 98 59
a 98 60
a 98 311
a 98 99
a 98 183
a 98 61
a 98 62
a 98 184
a 98 63
a 98 185
a 98 392
a 98 456
a 98 243
a 98 457
a 98 163
a 98 305
a 98 40
a 98 435
a 98 182
a 98 312
a 98 116
a 98 436
a 367 64
a 367 66
a 367 382
a 367 122
a 367 123
a 367 67
a 367 124
a 367 68
a 367 69
a 367 70
a 367 71
a 367 72
a 367 383
a 367 73
a 367 74
a 367 75
a 367 76
a 367 77
a 367 78
a 367 81
a 367 82
a 367 84
a 367 85
a 367 387
a 367 138
a 367 10
a 367 126
a 367 88
a 367 89
a 367 90
a 367 91
a 367 101
a 367 92
a 367 93
a 367 94
a 367 95
a 367 102
a 367 150
a 367 388
a 367 389
a 367 349
a 367 12
a 367 399
a 367 400
a 367 451
a 367 141
a 367 154
a 367 155
a 367 158
a 367 14
a 367 15
a 367 403
a 367 134
a 367 16
a 367 452
a 367 17
a 367 18
a 367 19
a 367 20
a 367 97
a 367 108
a 367 98
a 367 320
a 367 143
a 367 128
a 367 164
a 367 251
a 367 254
a 367 129
a 367 272
a 367 110
a 367 7
a 367 148
a 367 346
a 367 80
a 367 151
a 367 378
a 367 139
a 367 103
a 367 220
a 367 104
a 367 228
a 367 13
a 367 142
a 367 105
a 367 106
a 367 107
a 367 484
a 367 404
a 367 160
a 367 453
a 367 454
a 367 96
a 367 352
a 367 236
a 367 240
a 367 21
a 367 127
a 367 23
a 367 252
a 367 253
a 367 255
a 367 361
a 367 25
a 367 256
a 367 460
a 367 362
a 367 257
a 367 258
a 367 259
a 367 260
a 367 261
a 367 262
a 367 263
a 367 264
a 367 265
a 367 271
a 367 130
a 367 28
a 367 273
a 367 366
a 367 30
a 367 167
a 367 328
a 367 279
a 367 414
a 367 370
a 367 280
a 367 282
a 367 283
a 367 34
a 367 290
a 367 292
a 367 394
a 367 112
a 367 39
a 367 41
a 367 113
a 367 42
a 367 43
a 367 44
a 367 46
a 367 114
a 367 47
a 367 48
a 367 49
a 367 50
a 367 51
a 367 52
a 367 53
a 367 54
a 367 55
a 367 181
a 367 56
a 367 57
a 367 58
a 367 59
a 367 60
a 367 183
a 367 61
a 367 396
a 367 62
a 367 63
a 367 185
a 367 330
a 367 284
a 367 294
a 367 296
a 367 297
a 367 306
a 367 307
a 367 144
a 367 175
a 367 375
a 367 430
a 367 178
a 384 64
a 384 65
a 384 66
a 384 382
a 384 122
a 384 123
a 384 67
a 384 124
a 384 68
a 384 125
a 384 69
a 384 70
a 384 71
a 384 72
a 384 383
a 384 73
a 384 74
a 384 75
a 384 76
a 384 77
a 384 78
a 384 79
a 384 80
a 384 81
a 384 82
a 384 83
a 384 84
a 384 85
a 384 387
a 384 86
a 384 87
a 384 138
a 384 10
a 384 126
a 384 88
a 384 89
a 384 90
a 384 91
a 384 101
a 384 92
a 384 93
a 384 94
a 384 95
a 384 128
a 384 256
a 384 27
a 384 110
a 384 167
a 384 168
a 384 31
a 384 325
a 384 326
a 384 327
a 384 278
a 384 279
a 384 329
a 384 119
a 384 318
a 384 148
a 384 102
a 384 139
a 384 220
a 384 104
a 384 228
a 384 12
a 384 13
a 384 141
a 384 142
a 384 105
a 384 232
a 384 106
a 384 107
a 384 14
a 384 133
a 384 134
a 384 16
a 384 17
a 384 20
a 384 236
a 384 240
a 384 21
a 384 242
a 384 22
a 384 127
a 384 23
a 384 164
a 384 251
a 384 253
a 384 255
a 384 26
a 384 460
a 384 362
a 384 257
a 384 260
a 384 263
a 384 264
a 384 406
a 384 265
a 384 266
a 384 323
a 384 363
a 384 461
a 384 324
a 384 271
a 384 130
a 384 273
a 384 274
a 384 366
a 384 30
a 384 275
a 384 277
a 384 368
a 384 414
a 384 280
a 384 281
a 384 282
a 384 330
a 384 283
a 384 32
a 384 34
a 384 418
a 384 285
a 384 288
a 384 289
a 384 290
a 384 292
a 384 111
a 384 297
a 384 38
a 384 394
a 384 429
a 384 112
a 384 135
a 384 41
a 384 113
a 384 42
a 384 43
a 384 44
a 384 46
a 384 114
a 384 47
a 384 48
a 384 49
a 384 115
a 384 50
a 384 51
a 384 52
a 384 53
a 384 54
a 384 55
a 384 181
a 384 56
a 384 57
a 384 58
a 384 59
a 384 60
a 384 99
a 384 183
a 384 61
a 384 62
a 384 63
a 384 185
a 384 412
a 384 331
a 384 469
a 384 294
a 384 307
a 311 64
a 311 65
a 311 123
a 311 67
a 311 124
a 311 68
a 311 73
a 311 138
a 311 102
a 311 220
a 311 483
a 311 227
a 311 234
a 311 403
a 311 134
a 311 160
a 311 17
a 311 97
a 311 108
a 311 98
a 311 143
a 311 21
a 311 109
a 311 255
a 311 169
a 311 277
a 311 325
a 311 329
a 311 283
a 311 284
a 311 416
a 311 373
a 311 293
a 311 294
a 311 297
a 311 299
a 311 38
a 311 306
a 311 307
a 311 112
a 311 41
a 311 44
a 311 46
a 311 486
a 311 114
a 311 115
a 311 50
a 311 53
a 311 57
a 311 59
a 311 119
a 311 147
a 311 6
a 311 148
a 311 149
a 311 66
a 311 84
a 311 10
a 311 150
a 311 105
a 311 232
a 311 158
a 311 14
a 311 15
a 311 133
a 311 20
a 311 22
a 311 128
a 311 161
a 311 162
a 311 163
a 311 164
a 311 165
a 311 110
a 311 32
a 311 422
a 311 35
a 311 111
a 311 36
a 311 37
a 311 173
a 311 174
a 311 175
a 311 176
a 311 135
a 311 177
a 311 113
a 311 42
a 311 43
a 311 45
a 311 180
a 311 47
a 311 48
a 311 49
a 311 51
a 311 52
a 311 54
a 311 55
a 311 181
a 311 56
a 311 58
a 311 60
a 311 99
a 311 183
a 311 61
a 311 62
a 311 436
a 311 184
a 311 63
a 311 312
a 311 396
a 311 476
a 382 65
a 382 66
a 382 5
a 382 3
a 382 119
a 382 120
a 382 148
a 382 64
a 382 73
a 382 74
a 382 81
a 382 83
a 382 10
a 382 93
a 382 95
a 382 13
a 382 105
a 382 154
a 382 155
a 382 106
a 382 107
a 382 134
a 382 16
a 382 17
a 382 20
a 382 108
a 382 98
a 382 21
a 382 22
a 382 127
a 382 128
a 382 23
a 382 109
a 382 253
a 382 25
a 382 129
a 382 367
a 382 384
a 382 34
a 382 285
a 382 38
a 382 41
a 382 42
a 382 43
a 382 44
a 382 46
a 382 114
a 382 47
a 382 48
a 382 49
a 382 115
a 382 50
a 382 51
a 382 52
a 382 53
a 382 54
a 382 181
a 382 56
a 382 57
a 382 58
a 382 59
a 382 60
a 382 61
a 382 62
a 382 63
a 382 185
a 382 69
a 382 70
a 382 71
a 382 72
a 382 75
a 382 76
a 382 77
a 382 82
a 382 84
a 382 85
a 382 88
a 382 101
a 382 94
a 382 97
a 382 143
a 382 55
a 123 65
a 123 122
a 123 2
a 123 4
a 123 119
a 123 120
a 123 132
a 123 121
a 123 318
a 123 8
a 123 148
a 123 64
a 123 67
a 123 68
a 123 80
a 123 81
a 123 83
a 123 10
a 123 93
a 123 95
a 123 151
a 123 220
a 123 386
a 123 232
a 123 154
a 123 155
a 123 106
a 123 107
a 123 133
a 123 134
a 123 16
a 123 17
a 123 20
a 123 108
a 123 98
a 123 21
a 123 22
a 123 127
a 123 128
a 123 23
a 123 109
a 123 253
a 123 255
a 123 25
a 123 129
a 123 28
a 123 275
a 123 367
a 123 167
a 123 279
a 123 384
a 123 280
a 123 32
a 123 34
a 123 285
a 123 36
a 123 38
a 123 112
a 123 136
a 123 40
a 123 41
a 123 113
a 123 42
a 123 43
a 123 44
a 123 45
a 123 46
a 123 114
a 123 47
a 123 48
a 123 49
a 123 115
a 123 50
a 123 51
a 123 52
a 123 53
a 123 54
a 123 55
a 123 181
a 123 56
a 123 57
a 123 58
a 123 59
a 123 60
a 123 311
a 123 183
a 123 61
a 123 62
a 123 184
a 123 63
a 123 185
a 123 124
a 123 70
a 123 72
a 123 73
a 123 82
a 123 126
a 123 88
a 123 94
a 123 96
a 123 130
a 123 182
a 123 312
a 123 116
a 123 385
a 123 313
a 68 65
a 68 122
a 68 123
a 68 67
a 68 124
a 68 2
a 68 5
a 68 3
a 68 1
a 68 100
a 68 119
a 68 145
a 68 120
a 68 6
a 68 318
a 68 7
a 68 148
a 68 9
a 68 149
a 68 64
a 68 66
a 68 74
a 68 78
a 68 79
a 68 80
a 68 81
a 68 83
a 68 84
a 68 85
a 68 86
a 68 138
a 68 10
a 68 126
a 68 88
a 68 89
a 68 90
a 68 91
a 68 101
a 68 93
a 68 95
a 68 102
a 68 150
a 68 151
a 68 11
a 68 103
a 68 220
a 68 386
a 68 104
a 68 12
a 68 13
a 68 105
a 68 232
a 68 233
a 68 154
a 68 155
a 68 106
a 68 157
a 68 158
a 68 107
a 68 14
a 68 15
a 68 133
a 68 134
a 68 16
a 68 159
a 68 160
a 68 17
a 68 19
a 68 319
a 68 20
a 68 97
a 68 108
a 68 98
a 68 21
a 68 22
a 68 127
a 68 128
a 68 23
a 68 161
a 68 162
a 68 163
a 68 164
a 68 109
a 68 253
a 68 25
a 68 26
a 68 129
a 68 324
a 68 27
a 68 130
a 68 110
a 68 28
a 68 30
a 68 275
a 68 367
a 68 167
a 68 31
a 68 410
a 68 279
a 68 384
a 68 281
a 68 282
a 68 32
a 68 33
a 68 34
a 68 285
a 68 35
a 68 111
a 68 36
a 68 37
a 68 38
a 68 174
a 68 112
a 68 175
a 68 176
a 68 135
a 68 177
a 68 178
a 68 179
a 68 136
a 68 40
a 68 41
a 68 113
a 68 42
a 68 43
a 68 44
a 68 45
a 68 46
a 68 114
a 68 47
a 68 48
a 68 49
a 68 115
a 68 50
a 68 51
a 68 52
a 68 53
a 68 54
a 68 55
a 68 181
a 68 56
a 68 57
a 68 58
a 68 59
a 68 60
a 68 311
a 68 99
a 68 116
a 68 183
a 68 61
a 68 62
a 68 184
a 68 63
a 68 185
a 68 125
a 68 69
a 68 70
a 68 72
a 68 73
a 68 75
a 68 76
a 68 94
a 68 96
a 68 182
a 68 312
a 68 385
a 68 313
a 70 65
a 70 125
a 70 69
a 70 2
a 70 5
a 70 4
a 70 1
a 70 119
a 70 145
a 70 120
a 70 146
a 70 132
a 70 121
a 70 147
a 70 137
a 70 316
a 70 318
a 70 7
a 70 148
a 70 64
a 70 66
a 70 382
a 70 122
a 70 123
a 70 67
a 70 68
a 70 71
a 70 72
a 70 73
a 70 74
a 70 79
a 70 80
a 70 81
a 70 83
a 70 84
a 70 85
a 70 10
a 70 126
a 70 88
a 70 89
a 70 90
a 70 91
a 70 101
a 70 93
a 70 94
a 70 95
a 70 102
a 70 220
a 70 386
a 70 104
a 70 228
a 70 13
a 70 105
a 70 232
a 70 154
a 70 155
a 70 106
a 70 158
a 70 107
a 70 14
a 70 133
a 70 134
a 70 16
a 70 159
a 70 17
a 70 319
a 70 20
a 70 236
a 70 97
a 70 108
a 70 98
a 70 21
a 70 22
a 70 127
a 70 128
a 70 23
a 70 164
a 70 109
a 70 253
a 70 255
a 70 25
a 70 129
a 70 324
a 70 130
a 70 367
a 70 279
a 70 384
a 70 281
a 70 282
a 70 32
a 70 34
a 70 285
a 70 35
a 70 111
a 70 36
a 70 37
a 70 38
a 70 307
a 70 112
a 70 135
a 70 179
a 70 136
a 70 41
a 70 113
a 70 42
a 70 43
a 70 44
a 70 45
a 70 46
a 70 114
a 70 47
a 70 48
a 70 49
a 70 115
a 70 50
a 70 51
a 70 52
a 70 53
a 70 54
a 70 55
a 70 181
a 70 56
a 70 57
a 70 58
a 70 59
a 70 60
a 70 99
a 70 183
a 70 61
a 70 62
a 70 184
a 70 63
a 70 185
a 70 75
a 70 76
a 70 77
a 70 78
a 70 82
a 70 138
a 70 92
a 70 143
a 70 182
a 70 312
a 70 116
a 70 385
a 70 313
a 126 65
a 126 122
a 126 67
a 126 124
a 126 68
a 126 125
a 126 69
a 126 70
a 126 71
a 126 72
a 126 73
a 126 75
a 126 76
a 126 83
a 126 84
a 126 85
a 126 2
a 126 5
a 126 119
a 126 145
a 126 120
a 126 147
a 126 137
a 126 318
a 126 148
a 126 64
a 126 66
a 126 123
a 126 74
a 126 80
a 126 81
a 126 138
a 126 10
a 126 88
a 126 90
a 126 93
a 126 94
a 126 95
a 126 102
a 126 150
a 126 220
a 126 386
a 126 13
a 126 105
a 126 232
a 126 154
a 126 155
a 126 106
a 126 157
a 126 158
a 126 107
a 126 14
a 126 15
a 126 133
a 126 134
a 126 16
a 126 159
a 126 160
a 126 17
a 126 319
a 126 20
a 126 108
a 126 98
a 126 21
a 126 22
a 126 127
a 126 128
a 126 23
a 126 161
a 126 164
a 126 109
a 126 253
a 126 25
a 126 460
a 126 129
a 126 130
a 126 275
a 126 367
a 126 384
a 126 282
a 126 32
a 126 34
a 126 285
a 126 35
a 126 111
a 126 36
a 126 37
a 126 38
a 126 174
a 126 112
a 126 175
a 126 176
a 126 135
a 126 177
a 126 178
a 126 179
a 126 136
a 126 41
a 126 113
a 126 42
a 126 43
a 126 44
a 126 45
a 126 46
a 126 114
a 126 47
a 126 48
a 126 49
a 126 115
a 126 50
a 126 51
a 126 52
a 126 53
a 126 54
a 126 55
a 126 181
a 126 56
a 126 57
a 126 58
a 126 59
a 126 60
a 126 99
a 126 183
a 126 61
a 126 62
a 126 184
a 126 63
a 126 185
a 126 92
a 126 97
a 126 143
a 126 182
a 126 312
a 126 116
a 126 313
a 94 65
a 94 125
a 94 69
a 94 70
a 94 72
a 94 73
a 94 75
a 94 76
a 94 84
a 94 126
a 94 2
a 94 4
a 94 1
a 94 119
a 94 120
a 94 132
a 94 121
a 94 148
a 94 382
a 94 123
a 94 67
a 94 68
a 94 71
a 94 74
a 94 80
a 94 81
a 94 83
a 94 10
a 94 90
a 94 93
a 94 95
a 94 154
a 94 155
a 94 107
a 94 134
a 94 16
a 94 17
a 94 20
a 94 97
a 94 108
a 94 98
a 94 21
a 94 22
a 94 128
a 94 164
a 94 109
a 94 253
a 94 25
a 94 129
a 94 130
a 94 367
a 94 279
a 94 384
a 94 34
a 94 41
a 94 113
a 94 42
a 94 43
a 94 44
a 94 46
a 94 114
a 94 47
a 94 48
a 94 49
a 94 115
a 94 50
a 94 51
a 94 52
a 94 53
a 94 54
a 94 55
a 94 181
a 94 56
a 94 57
a 94 58
a 94 59
a 94 60
a 94 61
a 94 62
a 94 63
a 94 312
a 94 116
a 94 313
a 130 65
a 130 67
a 130 124
a 130 68
a 130 125
a 130 69
a 130 70
a 130 71
a 130 72
a 130 73
a 130 74
a 130 75
a 130 76
a 130 77
a 130 82
a 130 83
a 130 84
a 130 85
a 130 387
a 130 86
a 130 138
a 130 10
a 130 126
a 130 88
a 130 89
a 130 90
a 130 91
a 130 92
a 130 93
a 130 94
a 130 95
a 130 17
a 130 19
a 130 20
a 130 97
a 130 108
a 130 98
a 130 143
a 130 240
a 130 128
a 130 109
a 130 129
a 130 2
a 130 318
a 130 7
a 130 148
a 130 123
a 130 151
a 130 441
a 130 228
a 130 12
a 130 13
a 130 141
a 130 142
a 130 233
a 130 154
a 130 155
a 130 106
a 130 107
a 130 134
a 130 16
a 130 236
a 130 237
a 130 21
a 130 164
a 130 251
a 130 253
a 130 255
a 130 460
a 130 258
a 130 263
a 130 264
a 130 406
a 130 271
a 130 110
a 130 366
a 130 30
a 130 167
a 130 368
a 130 279
a 130 280
a 130 282
a 130 34
a 130 291
a 130 394
a 130 41
a 130 113
a 130 42
a 130 43
a 130 44
a 130 46
a 130 114
a 130 47
a 130 48
a 130 49
a 130 50
a 130 51
a 130 52
a 130 53
a 130 54
a 130 55
a 130 181
a 130 56
a 130 57
a 130 58
a 130 59
a 130 60
a 130 61
a 130 62
a 130 63
a 130 185
a 130 367
a 130 384
a 130 144
a 130 112
a 463 65
a 463 108
a 463 148
a 463 10
a 463 104
a 463 380
a 463 12
a 463 106
a 463 107
a 463 16
a 463 17
a 463 236
a 463 21
a 463 22
a 463 127
a 463 128
a 463 253
a 463 255
a 463 25
a 463 256
a 463 26
a 463 460
a 463 263
a 463 264
a 463 406
a 463 266
a 463 461
a 463 271
a 463 110
a 463 28
a 463 273
a 463 274
a 463 167
a 463 279
a 463 371
a 463 32
a 463 34
a 463 394
a 463 309
a 463 41
a 463 113
a 463 42
a 463 44
a 463 46
a 463 114
a 463 47
a 463 48
a 463 49
a 463 115
a 463 50
a 463 51
a 463 52
a 463 53
a 463 54
a 463 55
a 463 181
a 463 56
a 463 57
a 463 58
a 463 59
a 463 60
a 463 61
a 463 396
a 463 62
a 463 63
a 463 185
a 463 43
a 463 435
a 463 312
a 463 436
a 81 382
a 81 123
a 81 67
a 81 124
a 81 68
a 81 70
a 81 71
a 81 72
a 81 73
a 81 74
a 81 75
a 81 76
a 81 2
a 81 1
a 81 100
a 81 119
a 81 145
a 81 120
a 81 121
a 81 318
a 81 148
a 81 64
a 81 65
a 81 66
a 81 122
a 81 79
a 81 80
a 81 82
a 81 83
a 81 84
a 81 85
a 81 138
a 81 10
a 81 88
a 81 90
a 81 91
a 81 93
a 81 95
a 81 102
a 81 220
a 81 105
a 81 232
a 81 154
a 81 155
a 81 106
a 81 157
a 81 158
a 81 107
a 81 14
a 81 15
a 81 133
a 81 134
a 81 16
a 81 159
a 81 160
a 81 17
a 81 319
a 81 20
a 81 97
a 81 108
a 81 98
a 81 21
a 81 22
a 81 128
a 81 23
a 81 164
a 81 109
a 81 253
a 81 25
a 81 460
a 81 129
a 81 28
a 81 367
a 81 279
a 81 384
a 81 32
a 81 34
a 81 35
a 81 111
a 81 36
a 81 37
a 81 38
a 81 112
a 81 175
a 81 135
a 81 177
a 81 178
a 81 179
a 81 136
a 81 41
a 81 113
a 81 42
a 81 43
a 81 44
a 81 45
a 81 46
a 81 114
a 81 47
a 81 48
a 81 49
a 81 115
a 81 50
a 81 51
a 81 52
a 81 53
a 81 54
a 81 55
a 81 181
a 81 56
a 81 57
a 81 58
a 81 59
a 81 60
a 81 99
a 81 183
a 81 61
a 81 62
a 81 184
a 81 63
a 81 185
a 81 126
a 81 92
a 81 94
a 81 182
a 81 312
a 81 116
a 81 385
a 81 313
a 81 476
a 122 2
a 122 5
a 122 318
a 122 148
a 122 64
a 122 66
a 122 123
a 122 67
a 122 68
a 122 83
a 122 126
a 122 95
a 122 154
a 122 155
a 122 106
a 122 107
a 122 134
a 122 16
a 122 17
a 122 20
a 122 108
a 122 98
a 122 21
a 122 22
a 122 127
a 122 128
a 122 23
a 122 109
a 122 253
a 122 255
a 122 25
a 122 129
a 122 367
a 122 384
a 122 281
a 122 282
a 122 32
a 122 285
a 122 41
a 122 113
a 122 42
a 122 43
a 122 44
a 122 46
a 122 114
a 122 47
a 122 48
a 122 49
a 122 115
a 122 50
a 122 51
a 122 52
a 122 53
a 122 54
a 122 55
a 122 181
a 122 56
a 122 57
a 122 58
a 122 59
a 122 60
a 122 61
a 122 62
a 122 63
a 122 185
a 122 124
a 122 70
a 122 72
a 122 73
a 122 81
a 122 84
a 122 85
a 122 93
a 122 182
a 122 312
a 122 116
a 122 385
a 122 313
a 386 123
a 386 67
a 386 68
a 386 70
a 386 72
a 386 73
a 386 78
a 386 83
a 386 84
a 386 86
a 386 126
a 386 90
a 386 92
a 386 93
a 386 95
a 386 102
a 386 389
a 386 151
a 386 218
a 386 377
a 386 219
a 386 220
a 386 117
a 386 66
a 386 10
a 386 397
a 386 390
a 386 478
a 386 349
a 386 477
a 386 378
a 386 11
a 386 139
a 386 103
a 386 350
a 386 445
a 386 483
a 386 391
a 386 12
a 386 450
a 386 232
a 386 155
a 386 106
a 386 107
a 386 133
a 386 134
a 386 16
a 386 237
a 386 238
a 386 239
a 386 21
a 386 22
a 386 127
a 386 128
a 386 253
a 386 255
a 386 25
a 386 256
a 386 30
a 386 34
a 386 469
a 386 38
a 386 112
a 386 474
a 386 432
a 386 41
a 386 113
a 386 42
a 386 44
a 386 46
a 386 114
a 386 47
a 386 48
a 386 49
a 386 115
a 386 50
a 386 51
a 386 52
a 386 53
a 386 54
a 386 55
a 386 181
a 386 56
a 386 57
a 386 58
a 386 59
a 386 60
a 386 99
a 386 183
a 386 61
a 386 62
a 386 63
a 386 185
a 386 221
a 386 104
a 386 223
a 386 225
a 386 229
a 386 141
a 386 142
a 386 234
a 386 17
a 386 20
a 386 236
a 386 97
a 386 108
a 386 98
a 386 143
a 386 240
a 386 243
a 386 164
a 386 250
a 386 257
a 386 260
a 386 263
a 386 264
a 386 265
a 386 129
a 386 267
a 386 27
a 386 269
a 386 272
a 386 110
a 386 273
a 386 275
a 386 168
a 386 31
a 386 277
a 386 325
a 386 281
a 386 284
a 386 170
a 386 285
a 386 35
a 386 291
a 386 111
a 386 294
a 386 297
a 386 298
a 386 303
a 386 472
a 386 305
a 386 173
a 386 40
a 386 182
a 386 312
a 386 116
a 85 67
a 85 124
a 85 68
a 85 70
a 85 72
a 85 73
a 85 74
a 85 75
a 85 76
a 85 81
a 85 82
a 85 84
a 85 4
a 85 1
a 85 119
a 85 145
a 85 120
a 85 132
a 85 121
a 85 137
a 85 318
a 85 148
a 85 382
a 85 122
a 85 80
a 85 83
a 85 138
a 85 10
a 85 126
a 85 88
a 85 89
a 85 90
a 85 91
a 85 93
a 85 95
a 85 233
a 85 154
a 85 155
a 85 107
a 85 134
a 85 16
a 85 17
a 85 20
a 85 108
a 85 98
a 85 21
a 85 22
a 85 128
a 85 23
a 85 109
a 85 253
a 85 25
a 85 129
a 85 324
a 85 130
a 85 275
a 85 367
a 85 384
a 85 32
a 85 34
a 85 41
a 85 113
a 85 42
a 85 43
a 85 44
a 85 46
a 85 114
a 85 47
a 85 48
a 85 49
a 85 115
a 85 50
a 85 51
a 85 52
a 85 53
a 85 54
a 85 55
a 85 181
a 85 56
a 85 57
a 85 58
a 85 59
a 85 60
a 85 61
a 85 62
a 85 184
a 85 63
a 85 185
a 85 387
a 85 92
a 85 18
a 85 19
a 85 97
a 85 143
a 85 312
a 85 116
a 85 313
a 88 67
a 88 124
a 88 68
a 88 125
a 88 69
a 88 70
a 88 71
a 88 72
a 88 73
a 88 74
a 88 76
a 88 77
a 88 78
a 88 81
a 88 82
a 88 83
a 88 84
a 88 85
a 88 387
a 88 86
a 88 87
a 88 138
a 88 126
a 88 2
a 88 4
a 88 1
a 88 100
a 88 119
a 88 145
a 88 120
a 88 132
a 88 121
a 88 147
a 88 137
a 88 148
a 88 64
a 88 66
a 88 382
a 88 123
a 88 75
a 88 79
a 88 80
a 88 10
a 88 89
a 88 90
a 88 91
a 88 101
a 88 93
a 88 95
a 88 102
a 88 13
a 88 154
a 88 155
a 88 106
a 88 107
a 88 134
a 88 16
a 88 17
a 88 18
a 88 20
a 88 97
a 88 108
a 88 98
a 88 320
a 88 143
a 88 21
a 88 22
a 88 128
a 88 23
a 88 164
a 88 109
a 88 253
a 88 255
a 88 25
a 88 129
a 88 324
a 88 130
a 88 28
a 88 367
a 88 384
a 88 280
a 88 32
a 88 34
a 88 38
a 88 41
a 88 113
a 88 42
a 88 43
a 88 44
a 88 46
a 88 114
a 88 47
a 88 48
a 88 49
a 88 115
a 88 50
a 88 51
a 88 52
a 88 53
a 88 54
a 88 55
a 88 181
a 88 56
a 88 57
a 88 58
a 88 59
a 88 60
a 88 99
a 88 61
a 88 62
a 88 63
a 88 185
a 88 92
a 88 19
a 88 393
a 88 312
a 88 116
a 88 385
a 88 313
a 124 2
a 124 3
a 124 145
a 124 121
a 124 318
a 124 148
a 124 122
a 124 123
a 124 67
a 124 68
a 124 80
a 124 81
a 124 83
a 124 84
a 124 85
a 124 10
a 124 126
a 124 88
a 124 89
a 124 91
a 124 95
a 124 102
a 124 220
a 124 13
a 124 105
a 124 232
a 124 154
a 124 155
a 124 106
a 124 107
a 124 133
a 124 134
a 124 16
a 124 17
a 124 20
a 124 108
a 124 98
a 124 21
a 124 22
a 124 127
a 124 128
a 124 23
a 124 109
a 124 253
a 124 25
a 124 129
a 124 324
a 124 130
a 124 275
a 124 367
a 124 384
a 124 281
a 124 282
a 124 32
a 124 34
a 124 285
a 124 38
a 124 112
a 124 136
a 124 41
a 124 113
a 124 42
a 124 43
a 124 44
a 124 45
a 124 46
a 124 114
a 124 47
a 124 48
a 124 49
a 124 115
a 124 50
a 124 51
a 124 52
a 124 53
a 124 54
a 124 55
a 124 181
a 124 56
a 124 57
a 124 58
a 124 59
a 124 60
a 124 311
a 124 99
a 124 61
a 124 62
a 124 184
a 124 63
a 124 185
a 124 182
a 124 312
a 124 116
a 124 385
a 124 313
a 125 2
a 125 4
a 125 119
a 125 120
a 125 137
a 125 318
a 125 148
a 125 64
a 125 65
a 125 66
a 125 68
a 125 70
a 125 71
a 125 383
a 125 74
a 125 79
a 125 80
a 125 83
a 125 10
a 125 126
a 125 88
a 125 90
a 125 101
a 125 93
a 125 94
a 125 95
a 125 220
a 125 154
a 125 155
a 125 106
a 125 107
a 125 134
a 125 16
a 125 17
a 125 20
a 125 108
a 125 98
a 125 240
a 125 21
a 125 22
a 125 127
a 125 128
a 125 23
a 125 164
a 125 109
a 125 253
a 125 255
a 125 129
a 125 130
a 125 279
a 125 384
a 125 32
a 125 34
a 125 285
a 125 38
a 125 41
a 125 113
a 125 42
a 125 44
a 125 46
a 125 114
a 125 47
a 125 48
a 125 49
a 125 115
a 125 50
a 125 51
a 125 52
a 125 53
a 125 54
a 125 55
a 125 181
a 125 56
a 125 57
a 125 58
a 125 59
a 125 60
a 125 61
a 125 62
a 125 184
a 125 63
a 125 185
a 125 75
a 125 77
a 125 78
a 125 182
a 125 312
a 125 116
a 125 385
a 125 313
a 383 125
a 383 4
a 383 119
a 383 120
a 383 137
a 383 318
a 383 148
a 383 64
a 383 66
a 383 73
a 383 74
a 383 83
a 383 10
a 383 101
a 383 93
a 383 95
a 383 102
a 383 232
a 383 154
a 383 155
a 383 106
a 383 107
a 383 134
a 383 16
a 383 17
a 383 20
a 383 108
a 383 98
a 383 21
a 383 22
a 383 128
a 383 23
a 383 164
a 383 253
a 383 255
a 383 25
a 383 129
a 383 324
a 383 367
a 383 384
a 383 32
a 383 34
a 383 285
a 383 35
a 383 38
a 383 112
a 383 41
a 383 113
a 383 42
a 383 43
a 383 44
a 383 46
a 383 114
a 383 47
a 383 48
a 383 49
a 383 115
a 383 50
a 383 51
a 383 52
a 383 53
a 383 54
a 383 55
a 383 181
a 383 56
a 383 57
a 383 58
a 383 59
a 383 60
a 383 99
a 383 61
a 383 62
a 383 184
a 383 63
a 383 185
a 383 182
a 383 312
a 383 116
a 383 385
a 383 313
a 69 2
a 69 5
a 69 3
a 69 4
a 69 1
a 69 119
a 69 120
a 69 132
a 69 121
a 69 147
a 69 137
a 69 318
a 69 148
a 69 64
a 69 65
a 69 66
a 69 382
a 69 67
a 69 68
a 69 70
a 69 71
a 69 72
a 69 74
a 69 79
a 69 80
a 69 83
a 69 84
a 69 10
a 69 126
a 69 88
a 69 90
a 69 91
a 69 93
a 69 94
a 69 95
a 69 102
a 69 220
a 69 228
a 69 13
a 69 105
a 69 232
a 69 154
a 69 155
a 69 106
a 69 107
a 69 133
a 69 134
a 69 16
a 69 17
a 69 20
a 69 108
a 69 98
a 69 21
a 69 22
a 69 127
a 69 128
a 69 23
a 69 164
a 69 109
a 69 253
a 69 255
a 69 129
a 69 130
a 69 367
a 69 384
a 69 32
a 69 34
a 69 285
a 69 111
a 69 38
a 69 307
a 69 112
a 69 136
a 69 41
a 69 113
a 69 42
a 69 43
a 69 44
a 69 45
a 69 46
a 69 114
a 69 47
a 69 48
a 69 49
a 69 115
a 69 50
a 69 51
a 69 52
a 69 53
a 69 54
a 69 55
a 69 181
a 69 56
a 69 57
a 69 58
a 69 59
a 69 60
a 69 99
a 69 183
a 69 61
a 69 62
a 69 184
a 69 63
a 69 185
a 69 182
a 69 312
a 69 116
a 69 385
a 69 313
a 72 69
a 72 70
a 72 71
a 72 2
a 72 4
a 72 1
a 72 119
a 72 145
a 72 120
a 72 146
a 72 132
a 72 121
a 72 147
a 72 137
a 72 318
a 72 148
a 72 64
a 72 65
a 72 66
a 72 382
a 72 122
a 72 123
a 72 67
a 72 68
a 72 73
a 72 74
a 72 79
a 72 80
a 72 81
a 72 82
a 72 83
a 72 84
a 72 85
a 72 87
a 72 10
a 72 126
a 72 88
a 72 89
a 72 90
a 72 91
a 72 93
a 72 94
a 72 95
a 72 102
a 72 151
a 72 220
a 72 386
a 72 228
a 72 13
a 72 105
a 72 232
a 72 154
a 72 155
a 72 106
a 72 107
a 72 134
a 72 16
a 72 17
a 72 20
a 72 108
a 72 98
a 72 320
a 72 21
a 72 22
a 72 127
a 72 128
a 72 23
a 72 164
a 72 109
a 72 253
a 72 255
a 72 25
a 72 129
a 72 324
a 72 130
a 72 28
a 72 367
a 72 167
a 72 279
a 72 384
a 72 281
a 72 282
a 72 32
a 72 34
a 72 285
a 72 111
a 72 38
a 72 112
a 72 40
a 72 41
a 72 113
a 72 42
a 72 43
a 72 44
a 72 46
a 72 114
a 72 47
a 72 48
a 72 49
a 72 115
a 72 50
a 72 51
a 72 52
a 72 53
a 72 54
a 72 55
a 72 181
a 72 56
a 72 57
a 72 58
a 72 59
a 72 60
a 72 99
a 72 61
a 72 62
a 72 184
a 72 63
a 72 185
a 72 182
a 72 312
a 72 116
a 72 385
a 72 313
a 82 72
a 82 75
a 82 81
a 82 4
a 82 1
a 82 100
a 82 119
a 82 145
a 82 120
a 82 132
a 82 121
a 82 318
a 82 148
a 82 64
a 82 382
a 82 123
a 82 67
a 82 70
a 82 71
a 82 73
a 82 74
a 82 76
a 82 79
a 82 80
a 82 83
a 82 84
a 82 85
a 82 10
a 82 88
a 82 90
a 82 93
a 82 95
a 82 102
a 82 105
a 82 232
a 82 154
a 82 155
a 82 106
a 82 107
a 82 14
a 82 133
a 82 134
a 82 16
a 82 159
a 82 17
a 82 20
a 82 97
a 82 108
a 82 98
a 82 21
a 82 22
a 82 128
a 82 23
a 82 109
a 82 253
a 82 255
a 82 25
a 82 129
a 82 130
a 82 367
a 82 384
a 82 32
a 82 34
a 82 36
a 82 38
a 82 112
a 82 179
a 82 136
a 82 41
a 82 113
a 82 42
a 82 43
a 82 44
a 82 45
a 82 46
a 82 114
a 82 47
a 82 48
a 82 49
a 82 115
a 82 50
a 82 51
a 82 52
a 82 53
a 82 54
a 82 55
a 82 181
a 82 56
a 82 57
a 82 58
a 82 59
a 82 60
a 82 99
a 82 183
a 82 61
a 82 62
a 82 184
a 82 63
a 82 92
a 82 182
a 82 312
a 82 116
a 82 385
a 82 313
a 82 476
a 87 72
a 87 77
a 87 78
a 87 83
a 87 84
a 87 86
a 87 1
a 87 100
a 87 318
a 87 148
a 87 10
a 87 88
a 87 107
a 87 108
a 87 21
a 87 109
a 87 253
a 87 255
a 87 129
a 87 384
a 87 281
a 87 34
a 87 41
a 87 113
a 87 42
a 87 43
a 87 44
a 87 46
a 87 114
a 87 47
a 87 48
a 87 49
a 87 50
a 87 52
a 87 53
a 87 54
a 87 55
a 87 56
a 87 57
a 87 58
a 87 59
a 87 60
a 87 61
a 87 63
a 87 185
a 87 138
a 87 95
a 76 73
a 76 2
a 76 4
a 76 1
a 76 100
a 76 119
a 76 145
a 76 120
a 76 132
a 76 121
a 76 137
a 76 148
a 76 64
a 76 66
a 76 382
a 76 67
a 76 68
a 76 70
a 76 71
a 76 74
a 76 75
a 76 78
a 76 79
a 76 80
a 76 81
a 76 83
a 76 84
a 76 85
a 76 10
a 76 126
a 76 88
a 76 90
a 76 101
a 76 93
a 76 94
a 76 95
a 76 102
a 76 103
a 76 152
a 76 154
a 76 155
a 76 107
a 76 134
a 76 16
a 76 17
a 76 20
a 76 97
a 76 108
a 76 98
a 76 320
a 76 143
a 76 21
a 76 22
a 76 128
a 76 23
a 76 164
a 76 109
a 76 253
a 76 129
a 76 130
a 76 367
a 76 384
a 76 32
a 76 34
a 76 111
a 76 38
a 76 307
a 76 41
a 76 113
a 76 42
a 76 43
a 76 44
a 76 46
a 76 114
a 76 47
a 76 48
a 76 49
a 76 115
a 76 50
a 76 51
a 76 52
a 76 53
a 76 54
a 76 55
a 76 181
a 76 56
a 76 57
a 76 58
a 76 59
a 76 60
a 76 99
a 76 61
a 76 62
a 76 63
a 76 185
a 76 82
a 76 182
a 76 312
a 76 116
a 76 385
a 76 313
a 75 74
a 75 2
a 75 4
a 75 1
a 75 100
a 75 119
a 75 145
a 75 120
a 75 132
a 75 121
a 75 137
a 75 318
a 75 148
a 75 64
a 75 66
a 75 382
a 75 67
a 75 68
a 75 125
a 75 70
a 75 71
a 75 77
a 75 78
a 75 79
a 75 80
a 75 81
a 75 82
a 75 83
a 75 84
a 75 85
a 75 10
a 75 126
a 75 90
a 75 101
a 75 93
a 75 94
a 75 95
a 75 102
a 75 103
a 75 152
a 75 154
a 75 155
a 75 106
a 75 107
a 75 134
a 75 16
a 75 17
a 75 20
a 75 97
a 75 108
a 75 98
a 75 21
a 75 22
a 75 128
a 75 23
a 75 164
a 75 109
a 75 253
a 75 255
a 75 129
a 75 130
a 75 367
a 75 384
a 75 32
a 75 34
a 75 111
a 75 38
a 75 41
a 75 113
a 75 42
a 75 43
a 75 44
a 75 46
a 75 114
a 75 47
a 75 48
a 75 49
a 75 115
a 75 50
a 75 51
a 75 52
a 75 53
a 75 54
a 75 55
a 75 181
a 75 56
a 75 57
a 75 58
a 75 59
a 75 60
a 75 99
a 75 61
a 75 62
a 75 184
a 75 63
a 75 185
a 75 76
a 75 88
a 75 182
a 75 312
a 75 116
a 75 385
a 75 313
a 143 76
a 143 77
a 143 88
a 143 101
a 143 92
a 143 95
a 143 151
a 143 350
a 143 17
a 143 19
a 143 96
a 143 20
a 143 97
a 143 108
a 143 98
a 143 320
a 143 4
a 143 100
a 143 119
a 143 145
a 143 132
a 143 121
a 143 137
a 143 6
a 143 314
a 143 316
a 143 318
a 143 317
a 143 7
a 143 8
a 143 148
a 143 64
a 143 65
a 143 66
a 143 382
a 143 67
a 143 70
a 143 78
a 143 80
a 143 83
a 143 84
a 143 85
a 143 138
a 143 10
a 143 126
a 143 89
a 143 90
a 143 91
a 143 102
a 143 150
a 143 397
a 143 390
a 143 441
a 143 477
a 143 378
a 143 139
a 143 219
a 143 386
a 143 391
a 143 104
a 143 140
a 143 141
a 143 142
a 143 105
a 143 232
a 143 154
a 143 155
a 143 106
a 143 158
a 143 107
a 143 14
a 143 403
a 143 133
a 143 134
a 143 16
a 143 159
a 143 160
a 143 18
a 143 319
a 143 236
a 143 240
a 143 21
a 143 22
a 143 127
a 143 128
a 143 23
a 143 161
a 143 162
a 143 164
a 143 109
a 143 251
a 143 252
a 143 24
a 143 322
a 143 255
a 143 256
a 143 362
a 143 258
a 143 261
a 143 264
a 143 406
a 143 266
a 143 129
a 143 324
a 143 271
a 143 130
a 143 110
a 143 273
a 143 274
a 143 275
a 143 367
a 143 167
a 143 279
a 143 280
a 143 281
a 143 32
a 143 34
a 143 289
a 143 35
a 143 111
a 143 297
a 143 38
a 143 307
a 143 144
a 143 394
a 143 174
a 143 429
a 143 112
a 143 175
a 143 375
a 143 176
a 143 430
a 143 308
a 143 135
a 143 177
a 143 178
a 143 179
a 143 136
a 143 39
a 143 309
a 143 40
a 143 41
a 143 113
a 143 42
a 143 43
a 143 44
a 143 45
a 143 46
a 143 114
a 143 47
a 143 48
a 143 49
a 143 115
a 143 50
a 143 51
a 143 52
a 143 53
a 143 54
a 143 55
a 143 181
a 143 56
a 143 57
a 143 58
a 143 59
a 143 60
a 143 311
a 143 99
a 143 183
a 143 61
a 143 396
a 143 62
a 143 184
a 143 63
a 143 185
a 143 435
a 387 84
a 387 145
a 387 132
a 387 121
a 387 148
a 387 64
a 387 67
a 387 78
a 387 80
a 387 83
a 387 85
a 387 10
a 387 88
a 387 90
a 387 93
a 387 95
a 387 154
a 387 155
a 387 107
a 387 134
a 387 16
a 387 17
a 387 20
a 387 97
a 387 98
a 387 21
a 387 22
a 387 128
a 387 109
a 387 253
a 387 25
a 387 129
a 387 130
a 387 275
a 387 367
a 387 384
a 387 34
a 387 41
a 387 113
a 387 42
a 387 43
a 387 44
a 387 46
a 387 114
a 387 47
a 387 48
a 387 49
a 387 50
a 387 52
a 387 53
a 387 54
a 387 55
a 387 181
a 387 56
a 387 57
a 387 58
a 387 59
a 387 60
a 387 183
a 387 61
a 387 62
a 387 63
a 387 185
a 387 393
a 92 4
a 92 1
a 92 119
a 92 145
a 92 120
a 92 132
a 92 121
a 92 137
a 92 318
a 92 148
a 92 70
a 92 71
a 92 74
a 92 80
a 92 81
a 92 82
a 92 83
a 92 84
a 92 85
a 92 10
a 92 126
a 92 88
a 92 90
a 92 91
a 92 101
a 92 93
a 92 95
a 92 102
a 92 386
a 92 152
a 92 105
a 92 154
a 92 155
a 92 106
a 92 107
a 92 134
a 92 16
a 92 17
a 92 20
a 92 108
a 92 98
a 92 320
a 92 143
a 92 21
a 92 22
a 92 128
a 92 23
a 92 164
a 92 109
a 92 253
a 92 25
a 92 129
a 92 130
a 92 367
a 92 384
a 92 32
a 92 34
a 92 111
a 92 38
a 92 41
a 92 113
a 92 42
a 92 43
a 92 44
a 92 46
a 92 114
a 92 47
a 92 48
a 92 49
a 92 115
a 92 50
a 92 51
a 92 52
a 92 53
a 92 54
a 92 55
a 92 181
a 92 56
a 92 57
a 92 58
a 92 59
a 92 60
a 92 99
a 92 183
a 92 61
a 92 62
a 92 63
a 92 185
a 92 182
a 92 312
a 92 116
a 92 313
a 389 102
a 389 150
a 389 388
a 389 118
a 389 318
a 389 148
a 389 80
a 389 10
a 389 151
a 389 386
a 389 221
a 389 104
a 389 13
a 389 140
a 389 141
a 389 105
a 389 155
a 389 107
a 389 134
a 389 16
a 389 17
a 389 108
a 389 21
a 389 22
a 389 128
a 389 164
a 389 253
a 389 25
a 389 367
a 389 32
a 389 34
a 389 41
a 389 113
a 389 42
a 389 43
a 389 44
a 389 46
a 389 114
a 389 47
a 389 48
a 389 49
a 389 115
a 389 50
a 389 51
a 389 52
a 389 53
a 389 54
a 389 55
a 389 181
a 389 56
a 389 57
a 389 58
a 389 59
a 389 60
a 389 99
a 389 183
a 389 61
a 389 62
a 389 63
a 389 185
a 388 118
a 388 318
a 388 148
a 388 80
a 388 10
a 388 389
a 388 141
a 388 154
a 388 155
a 388 107
a 388 134
a 388 16
a 388 108
a 388 21
a 388 128
a 388 253
a 388 25
a 388 129
a 388 367
a 388 279
a 388 281
a 388 34
a 388 41
a 388 113
a 388 42
a 388 43
a 388 44
a 388 46
a 388 114
a 388 47
a 388 49
a 388 50
a 388 51
a 388 52
a 388 53
a 388 54
a 388 55
a 388 181
a 388 56
a 388 57
a 388 58
a 388 59
a 388 60
a 388 61
a 388 62
a 388 63
a 388 185
a 140 389
a 140 151
a 140 218
a 140 441
a 140 349
a 140 477
a 140 442
a 140 139
a 140 221
a 140 104
a 140 12
a 140 451
a 140 100
a 140 137
a 140 6
a 140 316
a 140 318
a 140 7
a 140 8
a 140 148
a 140 345
a 140 80
a 140 10
a 140 89
a 140 102
a 140 378
a 140 220
a 140 228
a 140 141
a 140 154
a 140 155
a 140 107
a 140 16
a 140 160
a 140 17
a 140 18
a 140 319
a 140 96
a 140 20
a 140 236
a 140 237
a 140 320
a 140 240
a 140 21
a 140 127
a 140 128
a 140 166
a 140 253
a 140 24
a 140 255
a 140 258
a 140 29
a 140 30
a 140 275
a 140 167
a 140 414
a 140 280
a 140 281
a 140 32
a 140 34
a 140 35
a 140 307
a 140 40
a 140 41
a 140 113
a 140 42
a 140 43
a 140 44
a 140 45
a 140 46
a 140 114
a 140 47
a 140 48
a 140 49
a 140 115
a 140 50
a 140 51
a 140 52
a 140 53
a 140 54
a 140 55
a 140 181
a 140 56
a 140 57
a 140 58
a 140 59
a 140 60
a 140 99
a 140 183
a 140 61
a 140 62
a 140 184
a 140 63
a 140 185
a 140 142
a 140 232
a 140 233
a 140 106
a 140 156
a 140 158
a 140 19
a 140 238
a 140 239
a 140 97
a 140 108
a 140 98
a 140 143
a 140 252
a 140 254
a 140 112
a 397 151
a 397 117
a 397 318
a 397 148
a 397 84
a 397 10
a 397 102
a 397 218
a 397 477
a 397 378
a 397 139
a 397 103
a 397 443
a 397 219
a 397 12
a 397 105
a 397 232
a 397 106
a 397 107
a 397 16
a 397 17
a 397 20
a 397 236
a 397 237
a 397 238
a 397 239
a 397 320
a 397 21
a 397 22
a 397 127
a 397 128
a 397 164
a 397 253
a 397 25
a 397 412
a 397 32
a 397 34
a 397 111
a 397 112
a 397 41
a 397 113
a 397 42
a 397 44
a 397 46
a 397 114
a 397 47
a 397 48
a 397 49
a 397 50
a 397 51
a 397 52
a 397 53
a 397 54
a 397 55
a 397 181
a 397 56
a 397 57
a 397 58
a 397 59
a 397 60
a 397 99
a 397 61
a 397 396
a 397 62
a 397 63
a 397 185
a 397 377
a 397 349
a 397 482
a 397 481
a 397 220
a 397 386
a 397 350
a 397 152
a 397 153
a 397 446
a 397 391
a 397 229
a 397 230
a 397 398
a 397 231
a 397 450
a 397 154
a 397 155
a 397 157
a 397 158
a 397 134
a 397 159
a 397 405
a 397 96
a 397 352
a 397 97
a 397 108
a 397 143
a 397 353
a 397 23
a 397 456
a 397 243
a 397 457
a 397 458
a 397 161
a 397 459
a 397 162
a 397 251
a 397 360
a 397 322
a 397 361
a 397 263
a 397 264
a 397 265
a 397 110
a 397 30
a 397 167
a 397 325
a 397 279
a 397 280
a 397 330
a 397 417
a 397 170
a 397 285
a 397 331
a 397 373
a 397 420
a 397 422
a 397 423
a 397 291
a 397 292
a 397 294
a 397 38
a 397 301
a 397 302
a 397 173
a 397 307
a 397 144
a 397 394
a 397 374
a 397 375
a 397 430
a 397 135
a 397 177
a 397 179
a 397 136
a 397 475
a 397 432
a 397 40
a 218 151
a 218 397
a 218 3
a 218 117
a 218 119
a 218 132
a 218 6
a 218 318
a 218 148
a 218 64
a 218 65
a 218 66
a 218 80
a 218 84
a 218 138
a 218 10
a 218 90
a 218 102
a 218 150
a 218 390
a 218 377
a 218 441
a 218 349
a 218 477
a 218 442
a 218 139
a 218 103
a 218 443
a 218 219
a 218 220
a 218 386
a 218 445
a 218 391
a 218 12
a 218 140
a 218 105
a 218 232
a 218 154
a 218 155
a 218 106
a 218 158
a 218 107
a 218 14
a 218 133
a 218 134
a 218 16
a 218 159
a 218 160
a 218 17
a 218 18
a 218 352
a 218 20
a 218 236
a 218 237
a 218 238
a 218 239
a 218 320
a 218 240
a 218 21
a 218 22
a 218 127
a 218 128
a 218 23
a 218 164
a 218 253
a 218 255
a 218 25
a 218 460
a 218 273
a 218 275
a 218 167
a 218 410
a 218 326
a 218 327
a 218 412
a 218 280
a 218 281
a 218 282
a 218 32
a 218 34
a 218 373
a 218 469
a 218 35
a 218 111
a 218 296
a 218 38
a 218 172
a 218 307
a 218 394
a 218 174
a 218 429
a 218 112
a 218 175
a 218 176
a 218 135
a 218 177
a 218 178
a 218 179
a 218 136
a 218 41
a 218 113
a 218 42
a 218 43
a 218 44
a 218 46
a 218 114
a 218 47
a 218 48
a 218 49
a 218 115
a 218 50
a 218 51
a 218 52
a 218 53
a 218 54
a 218 55
a 218 181
a 218 56
a 218 57
a 218 58
a 218 59
a 218 60
a 218 99
a 218 183
a 218 61
a 218 396
a 218 62
a 218 184
a 218 63
a 218 185
a 218 478
a 218 378
a 218 11
a 218 444
a 218 482
a 218 481
a 218 487
a 218 350
a 218 152
a 218 153
a 218 446
a 218 483
a 218 229
a 218 230
a 218 231
a 218 141
a 218 403
a 218 108
a 218 98
a 218 243
a 218 457
a 218 161
a 218 263
a 218 264
a 218 265
a 218 30
a 218 293
a 218 301
a 218 173
a 218 430
a 218 308
a 218 473
a 218 474
a 218 432
a 218 39
a 218 376
a 218 40
a 390 151
a 390 218
a 390 3
a 390 117
a 390 318
a 390 148
a 390 80
a 390 10
a 390 477
a 390 103
a 390 12
a 390 107
a 390 16
a 390 17
a 390 238
a 390 239
a 390 320
a 390 21
a 390 127
a 390 128
a 390 253
a 390 25
a 390 412
a 390 34
a 390 41
a 390 113
a 390 42
a 390 43
a 390 44
a 390 46
a 390 114
a 390 47
a 390 48
a 390 49
a 390 50
a 390 51
a 390 53
a 390 54
a 390 55
a 390 181
a 390 56
a 390 57
a 390 58
a 390 59
a 390 60
a 390 61
a 390 62
a 390 63
a 390 185
a 390 377
a 390 349
a 390 139
a 390 482
a 390 481
a 390 219
a 390 220
a 390 386
a 390 350
a 390 152
a 390 153
a 390 445
a 390 446
a 390 483
a 390 391
a 390 229
a 390 230
a 390 398
a 390 231
a 390 449
a 390 399
a 390 400
a 390 450
a 390 232
a 390 15
a 390 133
a 390 134
a 390 159
a 390 97
a 390 143
a 390 353
a 390 456
a 390 243
a 390 457
a 390 458
a 390 161
a 390 459
a 390 162
a 390 163
a 390 422
a 390 38
a 390 394
a 390 135
a 478 151
a 478 148
a 478 218
a 478 103
a 478 219
a 478 107
a 478 16
a 478 17
a 478 238
a 478 239
a 478 21
a 478 412
a 478 34
a 478 44
a 478 46
a 478 114
a 478 47
a 478 49
a 478 50
a 478 54
a 478 56
a 478 57
a 478 58
a 478 59
a 478 61
a 478 62
a 478 63
a 478 185
a 478 220
a 478 386
a 478 350
a 478 446
a 477 151
a 477 397
a 477 218
a 477 390
a 477 377
a 477 441
a 477 349
a 477 117
a 477 148
a 477 139
a 477 103
a 477 140
a 477 154
a 477 107
a 477 16
a 477 17
a 477 96
a 477 20
a 477 236
a 477 238
a 477 239
a 477 98
a 477 21
a 477 128
a 477 253
a 477 25
a 477 412
a 477 34
a 477 41
a 477 113
a 477 42
a 477 43
a 477 44
a 477 46
a 477 114
a 477 47
a 477 48
a 477 49
a 477 50
a 477 54
a 477 55
a 477 181
a 477 56
a 477 57
a 477 58
a 477 59
a 477 61
a 477 62
a 477 63
a 477 185
a 477 378
a 477 11
a 477 219
a 477 220
a 477 386
a 477 350
a 477 446
a 477 391
a 477 231
a 477 232
a 477 233
a 477 155
a 477 157
a 477 134
a 477 97
a 477 108
a 477 143
a 477 127
a 477 325
a 477 330
a 477 291
a 477 292
a 477 294
a 477 38
a 477 301
a 477 303
a 477 173
a 477 307
a 477 144
a 477 394
a 477 374
a 477 308
a 477 135
a 477 40
a 442 151
a 442 218
a 442 378
a 442 117
a 442 318
a 442 148
a 442 10
a 442 103
a 442 140
a 442 141
a 442 107
a 442 16
a 442 17
a 442 20
a 442 237
a 442 238
a 442 239
a 442 320
a 442 21
a 442 128
a 442 23
a 442 164
a 442 253
a 442 25
a 442 410
a 442 412
a 442 32
a 442 34
a 442 41
a 442 113
a 442 42
a 442 43
a 442 44
a 442 46
a 442 114
a 442 47
a 442 48
a 442 49
a 442 50
a 442 52
a 442 53
a 442 54
a 442 55
a 442 181
a 442 56
a 442 57
a 442 58
a 442 59
a 442 60
a 442 61
a 442 62
a 442 63
a 442 185
a 442 139
a 442 220
a 442 236
a 442 22
a 442 485
a 442 127
a 442 277
a 442 370
a 442 38
a 442 301
a 444 151
a 444 443
a 444 117
a 444 318
a 444 148
a 444 10
a 444 218
a 444 482
a 444 219
a 444 220
a 444 232
a 444 155
a 444 106
a 444 107
a 444 133
a 444 134
a 444 16
a 444 17
a 444 238
a 444 239
a 444 320
a 444 21
a 444 22
a 444 128
a 444 253
a 444 25
a 444 412
a 444 34
a 444 112
a 444 136
a 444 41
a 444 113
a 444 42
a 444 44
a 444 46
a 444 114
a 444 47
a 444 48
a 444 49
a 444 115
a 444 50
a 444 52
a 444 53
a 444 54
a 444 55
a 444 181
a 444 56
a 444 57
a 444 58
a 444 59
a 444 60
a 444 61
a 444 62
a 444 63
a 444 185
a 444 350
a 444 457
a 444 135
a 482 151
a 482 443
a 482 444
a 482 148
a 482 397
a 482 218
a 482 390
a 482 219
a 482 220
a 482 107
a 482 238
a 482 239
a 482 320
a 482 21
a 482 253
a 482 25
a 482 412
a 482 34
a 482 475
a 482 432
a 482 41
a 482 113
a 482 42
a 482 44
a 482 46
a 482 114
a 482 47
a 482 48
a 482 49
a 482 50
a 482 51
a 482 52
a 482 53
a 482 54
a 482 55
a 482 181
a 482 56
a 482 57
a 482 58
a 482 59
a 482 60
a 482 61
a 482 62
a 482 457
a 350 151
a 350 377
a 350 139
a 350 220
a 350 386
a 350 3
a 350 117
a 350 132
a 350 318
a 350 7
a 350 148
a 350 66
a 350 80
a 350 84
a 350 10
a 350 89
a 350 101
a 350 102
a 350 397
a 350 218
a 350 390
a 350 478
a 350 349
a 350 477
a 350 378
a 350 11
a 350 103
a 350 443
a 350 444
a 350 219
a 350 445
a 350 446
a 350 483
a 350 391
a 350 104
a 350 222
a 350 12
a 350 231
a 350 105
a 350 232
a 350 154
a 350 155
a 350 106
a 350 107
a 350 14
a 350 133
a 350 134
a 350 16
a 350 159
a 350 17
a 350 352
a 350 20
a 350 236
a 350 238
a 350 239
a 350 98
a 350 320
a 350 143
a 350 240
a 350 21
a 350 22
a 350 127
a 350 128
a 350 392
a 350 161
a 350 164
a 350 109
a 350 252
a 350 253
a 350 255
a 350 25
a 350 129
a 350 110
a 350 28
a 350 273
a 350 30
a 350 167
a 350 326
a 350 327
a 350 412
a 350 281
a 350 32
a 350 34
a 350 465
a 350 469
a 350 111
a 350 38
a 350 307
a 350 429
a 350 112
a 350 179
a 350 136
a 350 474
a 350 432
a 350 40
a 350 41
a 350 113
a 350 42
a 350 43
a 350 44
a 350 46
a 350 114
a 350 47
a 350 48
a 350 49
a 350 115
a 350 50
a 350 51
a 350 52
a 350 53
a 350 54
a 350 55
a 350 181
a 350 56
a 350 57
a 350 58
a 350 59
a 350 60
a 350 99
a 350 183
a 350 61
a 350 396
a 350 62
a 350 184
a 350 63
a 350 185
a 350 153
a 350 230
a 350 108
a 350 173
a 350 39
a 350 182
a 350 312
a 350 116
a 350 313
a 350 436
a 445 151
a 445 218
a 445 220
a 445 386
a 445 350
a 445 117
a 445 10
a 445 390
a 445 441
a 445 349
a 445 378
a 445 139
a 445 103
a 445 219
a 445 483
a 445 12
a 445 141
a 445 232
a 445 155
a 445 106
a 445 107
a 445 403
a 445 16
a 445 405
a 445 239
a 445 21
a 445 22
a 445 253
a 445 25
a 445 34
a 445 373
a 445 469
a 445 432
a 445 41
a 445 113
a 445 42
a 445 44
a 445 46
a 445 114
a 445 47
a 445 49
a 445 115
a 445 50
a 445 53
a 445 54
a 445 55
a 445 181
a 445 56
a 445 57
a 445 58
a 445 59
a 445 60
a 445 61
a 445 62
a 445 63
a 445 185
a 445 446
a 445 391
a 483 151
a 483 377
a 483 139
a 483 220
a 483 386
a 483 350
a 483 153
a 483 445
a 483 446
a 483 148
a 483 218
a 483 390
a 483 378
a 483 107
a 483 16
a 483 21
a 483 34
a 483 113
a 483 42
a 483 44
a 483 46
a 483 114
a 483 49
a 483 50
a 483 53
a 483 54
a 483 55
a 483 181
a 483 56
a 483 57
a 483 58
a 483 59
a 483 60
a 483 311
a 483 61
a 483 62
a 483 63
a 483 391
a 483 108
a 483 98
a 483 127
a 483 128
a 483 39
a 352 151
a 352 218
a 352 139
a 352 219
a 352 350
a 352 152
a 352 391
a 352 141
a 352 232
a 352 154
a 352 155
a 352 106
a 352 157
a 352 158
a 352 107
a 352 234
a 352 14
a 352 15
a 352 403
a 352 133
a 352 134
a 352 484
a 352 16
a 352 159
a 352 404
a 352 160
a 352 405
a 352 452
a 352 453
a 352 132
a 352 316
a 352 318
a 352 7
a 352 8
a 352 148
a 352 84
a 352 10
a 352 90
a 352 91
a 352 101
a 352 102
a 352 397
a 352 12
a 352 17
a 352 18
a 352 319
a 352 455
a 352 20
a 352 236
a 352 237
a 352 98
a 352 240
a 352 21
a 352 22
a 352 127
a 352 128
a 352 164
a 352 322
a 352 255
a 352 25
a 352 460
a 352 258
a 352 263
a 352 264
a 352 406
a 352 129
a 352 324
a 352 271
a 352 110
a 352 275
a 352 167
a 352 280
a 352 281
a 352 32
a 352 34
a 352 284
a 352 417
a 352 170
a 352 289
a 352 111
a 352 296
a 352 394
a 352 174
a 352 112
a 352 41
a 352 113
a 352 42
a 352 43
a 352 44
a 352 45
a 352 46
a 352 114
a 352 47
a 352 48
a 352 49
a 352 50
a 352 51
a 352 52
a 352 53
a 352 54
a 352 55
a 352 181
a 352 56
a 352 57
a 352 58
a 352 59
a 352 60
a 352 99
a 352 183
a 352 61
a 352 62
a 352 63
a 352 185
a 352 251
a 352 366
a 352 367
a 352 370
a 352 416
a 352 297
a 352 38
a 352 308
a 352 136
a 352 309
a 352 40
a 455 151
a 455 378
a 455 220
a 455 158
a 455 484
a 455 17
a 455 18
a 455 96
a 455 352
a 455 317
a 455 148
a 455 10
a 455 152
a 455 228
a 455 155
a 455 107
a 455 16
a 455 20
a 455 21
a 455 164
a 455 253
a 455 255
a 455 281
a 455 34
a 455 41
a 455 113
a 455 42
a 455 43
a 455 44
a 455 46
a 455 114
a 455 47
a 455 48
a 455 49
a 455 50
a 455 52
a 455 53
a 455 54
a 455 55
a 455 56
a 455 57
a 455 58
a 455 59
a 455 61
a 455 62
a 455 184
a 455 63
a 455 185
a 455 236
a 455 237
a 455 97
a 455 240
a 455 22
a 455 353
a 455 485
a 455 127
a 455 128
a 455 23
a 455 457
a 455 277
a 455 412
a 455 370
a 455 38
a 455 301
a 455 135
a 455 136
a 238 151
a 238 397
a 238 218
a 238 390
a 238 377
a 238 441
a 238 478
a 238 349
a 238 477
a 238 378
a 238 442
a 238 139
a 238 103
a 238 444
a 238 482
a 238 481
a 238 219
a 238 220
a 238 386
a 238 350
a 238 152
a 238 446
a 238 391
a 238 232
a 238 134
a 238 17
a 238 236
a 238 6
a 238 318
a 238 148
a 238 10
a 238 90
a 238 102
a 238 140
a 238 154
a 238 107
a 238 16
a 238 18
a 238 20
a 238 239
a 238 320
a 238 21
a 238 128
a 238 164
a 238 255
a 238 275
a 238 280
a 238 281
a 238 32
a 238 34
a 238 35
a 238 307
a 238 394
a 238 41
a 238 113
a 238 42
a 238 43
a 238 44
a 238 46
a 238 114
a 238 47
a 238 48
a 238 49
a 238 50
a 238 51
a 238 52
a 238 53
a 238 54
a 238 55
a 238 181
a 238 56
a 238 57
a 238 58
a 238 59
a 238 60
a 238 99
a 238 183
a 238 61
a 238 62
a 238 184
a 238 63
a 238 185
a 238 98
a 238 240
a 238 127
a 238 432
a 238 40
a 239 151
a 239 397
a 239 218
a 239 390
a 239 377
a 239 441
a 239 478
a 239 349
a 239 477
a 239 378
a 239 442
a 239 11
a 239 139
a 239 103
a 239 443
a 239 444
a 239 482
a 239 481
a 239 487
a 239 219
a 239 220
a 239 386
a 239 350
a 239 152
a 239 153
a 239 445
a 239 446
a 239 391
a 239 229
a 239 398
a 239 232
a 239 155
a 239 134
a 239 17
a 239 96
a 239 236
a 239 238
a 239 3
a 239 117
a 239 119
a 239 6
a 239 318
a 239 8
a 239 148
a 239 64
a 239 65
a 239 66
a 239 80
a 239 84
a 239 138
a 239 10
a 239 90
a 239 91
a 239 102
a 239 150
a 239 12
a 239 140
a 239 105
a 239 154
a 239 106
a 239 107
a 239 14
a 239 133
a 239 16
a 239 159
a 239 18
a 239 20
a 239 237
a 239 320
a 239 21
a 239 22
a 239 127
a 239 128
a 239 161
a 239 164
a 239 255
a 239 460
a 239 110
a 239 30
a 239 275
a 239 167
a 239 279
a 239 412
a 239 280
a 239 281
a 239 32
a 239 34
a 239 35
a 239 111
a 239 296
a 239 307
a 239 394
a 239 174
a 239 429
a 239 112
a 239 175
a 239 176
a 239 135
a 239 177
a 239 179
a 239 136
a 239 41
a 239 113
a 239 42
a 239 43
a 239 44
a 239 45
a 239 46
a 239 114
a 239 47
a 239 48
a 239 49
a 239 115
a 239 50
a 239 51
a 239 52
a 239 53
a 239 54
a 239 55
a 239 181
a 239 56
a 239 57
a 239 58
a 239 59
a 239 60
a 239 99
a 239 183
a 239 61
a 239 62
a 239 184
a 239 63
a 239 185
a 239 98
a 239 240
a 239 251
a 239 252
a 239 253
a 239 370
a 239 289
a 239 291
a 239 308
a 239 432
a 239 39
a 239 40
a 392 151
a 392 441
a 392 378
a 392 139
a 392 220
a 392 350
a 392 446
a 392 391
a 392 229
a 392 230
a 392 398
a 392 231
a 392 449
a 392 399
a 392 400
a 392 401
a 392 15
a 392 403
a 392 134
a 392 159
a 392 405
a 392 96
a 392 127
a 392 128
a 392 318
a 392 8
a 392 148
a 392 64
a 392 80
a 392 10
a 392 102
a 392 103
a 392 104
a 392 222
a 392 142
a 392 105
a 392 232
a 392 106
a 392 107
a 392 16
a 392 17
a 392 319
a 392 20
a 392 236
a 392 98
a 392 320
a 392 21
a 392 22
a 392 164
a 392 166
a 392 253
a 392 255
a 392 271
a 392 281
a 392 34
a 392 112
a 392 135
a 392 40
a 392 41
a 392 113
a 392 42
a 392 43
a 392 44
a 392 46
a 392 114
a 392 47
a 392 48
a 392 49
a 392 115
a 392 50
a 392 51
a 392 52
a 392 53
a 392 54
a 392 55
a 392 181
a 392 56
a 392 57
a 392 58
a 392 59
a 392 60
a 392 99
a 392 61
a 392 62
a 392 63
a 392 185
a 392 456
a 392 243
a 392 457
a 392 458
a 392 161
a 392 459
a 392 162
a 392 163
a 392 110
a 392 167
a 392 370
a 392 280
a 392 289
a 392 291
a 392 394
a 392 430
a 392 308
a 392 473
a 412 151
a 412 397
a 412 218
a 412 390
a 412 377
a 412 441
a 412 478
a 412 349
a 412 477
a 412 378
a 412 442
a 412 11
a 412 139
a 412 103
a 412 443
a 412 444
a 412 482
a 412 219
a 412 220
a 412 350
a 412 153
a 412 446
a 412 391
a 412 154
a 412 239
a 412 127
a 412 128
a 412 164
a 412 256
a 412 30
a 412 167
a 412 279
a 412 148
a 412 64
a 412 84
a 412 10
a 412 102
a 412 104
a 412 222
a 412 13
a 412 105
a 412 232
a 412 106
a 412 14
a 412 133
a 412 134
a 412 16
a 412 17
a 412 319
a 412 455
a 412 236
a 412 237
a 412 21
a 412 242
a 412 22
a 412 23
a 412 255
a 412 26
a 412 460
a 412 261
a 412 263
a 412 264
a 412 406
a 412 266
a 412 267
a 412 27
a 412 271
a 412 28
a 412 273
a 412 275
a 412 168
a 412 277
a 412 278
a 412 329
a 412 384
a 412 414
a 412 280
a 412 281
a 412 282
a 412 283
a 412 32
a 412 34
a 412 285
a 412 288
a 412 289
a 412 290
a 412 111
a 412 394
a 412 429
a 412 112
a 412 135
a 412 41
a 412 113
a 412 42
a 412 43
a 412 44
a 412 46
a 412 114
a 412 47
a 412 48
a 412 49
a 412 115
a 412 50
a 412 51
a 412 52
a 412 53
a 412 54
a 412 55
a 412 181
a 412 56
a 412 57
a 412 58
a 412 59
a 412 60
a 412 99
a 412 183
a 412 61
a 412 62
a 412 63
a 412 185
a 412 370
a 412 38
a 412 144
a 465 151
a 465 350
a 465 32
a 465 148
a 465 10
a 465 13
a 465 107
a 465 16
a 465 240
a 465 21
a 465 242
a 465 127
a 465 128
a 465 23
a 465 251
a 465 255
a 465 25
a 465 256
a 465 460
a 465 263
a 465 264
a 465 265
a 465 266
a 465 323
a 465 363
a 465 271
a 465 110
a 465 273
a 465 274
a 465 366
a 465 30
a 465 275
a 465 279
a 465 329
a 465 282
a 465 330
a 465 283
a 465 34
a 465 393
a 465 285
a 465 287
a 465 289
a 465 290
a 465 419
a 465 373
a 465 421
a 465 291
a 465 292
a 465 171
a 465 427
a 465 394
a 465 174
a 465 309
a 465 41
a 465 113
a 465 42
a 465 44
a 465 46
a 465 114
a 465 47
a 465 49
a 465 115
a 465 50
a 465 51
a 465 52
a 465 53
a 465 54
a 465 55
a 465 181
a 465 56
a 465 57
a 465 58
a 465 59
a 465 61
a 465 62
a 465 63
a 465 185
a 429 151
a 429 218
a 429 219
a 429 350
a 429 221
a 429 104
a 429 222
a 429 223
a 429 224
a 429 225
a 429 12
a 429 134
a 429 17
a 429 18
a 429 19
a 429 319
a 429 96
a 429 235
a 429 20
a 429 236
a 429 237
a 429 239
a 429 97
a 429 98
a 429 143
a 429 240
a 429 21
a 429 241
a 429 242
a 429 22
a 429 353
a 429 127
a 429 128
a 429 23
a 429 162
a 429 164
a 429 109
a 429 249
a 429 250
a 429 253
a 429 255
a 429 256
a 429 26
a 429 260
a 429 263
a 429 264
a 429 265
a 429 266
a 429 129
a 429 407
a 429 267
a 429 268
a 429 27
a 429 269
a 429 271
a 429 272
a 429 110
a 429 28
a 429 273
a 429 274
a 429 366
a 429 30
a 429 275
a 429 167
a 429 276
a 429 168
a 429 31
a 429 277
a 429 409
a 429 326
a 429 278
a 429 368
a 429 279
a 429 329
a 429 384
a 429 412
a 429 280
a 429 281
a 429 282
a 429 283
a 429 32
a 429 33
a 429 34
a 429 284
a 429 285
a 429 372
a 429 286
a 429 287
a 429 288
a 429 289
a 429 290
a 429 420
a 429 421
a 429 422
a 429 35
a 429 291
a 429 292
a 429 111
a 429 293
a 429 294
a 429 295
a 429 296
a 429 297
a 429 37
a 429 298
a 429 426
a 429 299
a 429 38
a 429 300
a 429 172
a 429 301
a 429 302
a 429 303
a 429 304
a 429 472
a 429 305
a 429 173
a 429 306
a 429 307
a 429 427
a 429 144
a 429 394
a 429 174
a 429 428
a 429 148
a 429 84
a 429 10
a 429 102
a 429 220
a 429 141
a 429 105
a 429 232
a 429 154
a 429 106
a 429 107
a 429 14
a 429 133
a 429 16
a 429 251
a 429 460
a 429 261
a 429 406
a 429 112
a 429 40
a 429 41
a 429 113
a 429 42
a 429 43
a 429 44
a 429 46
a 429 114
a 429 47
a 429 48
a 429 49
a 429 115
a 429 50
a 429 51
a 429 52
a 429 53
a 429 54
a 429 55
a 429 181
a 429 56
a 429 57
a 429 58
a 429 59
a 429 60
a 429 99
a 429 183
a 429 61
a 429 62
a 429 184
a 429 63
a 429 185
a 429 175
a 429 431
a 429 308
a 429 135
a 474 151
a 474 220
a 474 386
a 474 350
a 474 450
a 474 306
a 474 307
a 474 428
a 474 112
a 474 147
a 474 148
a 474 64
a 474 66
a 474 10
a 474 218
a 474 219
a 474 12
a 474 141
a 474 106
a 474 107
a 474 16
a 474 17
a 474 20
a 474 236
a 474 240
a 474 21
a 474 128
a 474 253
a 474 255
a 474 25
a 474 263
a 474 264
a 474 363
a 474 167
a 474 34
a 474 394
a 474 40
a 474 41
a 474 113
a 474 42
a 474 44
a 474 46
a 474 114
a 474 49
a 474 115
a 474 50
a 474 52
a 474 53
a 474 54
a 474 55
a 474 181
a 474 56
a 474 57
a 474 58
a 474 59
a 474 60
a 474 61
a 474 396
a 474 62
a 474 63
a 474 435
a 474 182
a 474 312
a 474 116
a 432 151
a 432 482
a 432 219
a 432 220
a 432 386
a 432 350
a 432 152
a 432 153
a 432 445
a 432 446
a 432 391
a 432 229
a 432 230
a 432 398
a 432 231
a 432 449
a 432 399
a 432 400
a 432 232
a 432 353
a 432 127
a 432 128
a 432 243
a 432 457
a 432 458
a 432 161
a 432 459
a 432 162
a 432 163
a 432 253
a 432 167
a 432 173
a 432 394
a 432 135
a 432 179
a 432 475
a 432 117
a 432 148
a 432 84
a 432 10
a 432 102
a 432 397
a 432 218
a 432 103
a 432 142
a 432 105
a 432 106
a 432 107
a 432 16
a 432 17
a 432 236
a 432 238
a 432 239
a 432 240
a 432 21
a 432 22
a 432 255
a 432 256
a 432 460
a 432 259
a 432 261
a 432 263
a 432 264
a 432 265
a 432 363
a 432 271
a 432 272
a 432 110
a 432 28
a 432 273
a 432 274
a 432 366
a 432 30
a 432 279
a 432 32
a 432 34
a 432 289
a 432 111
a 432 112
a 432 41
a 432 113
a 432 42
a 432 43
a 432 44
a 432 46
a 432 114
a 432 47
a 432 48
a 432 49
a 432 115
a 432 50
a 432 51
a 432 52
a 432 53
a 432 54
a 432 55
a 432 181
a 432 56
a 432 57
a 432 58
a 432 59
a 432 60
a 432 99
a 432 183
a 432 61
a 432 396
a 432 62
a 432 63
a 432 40
a 443 397
a 443 218
a 443 117
a 443 318
a 443 148
a 443 10
a 443 102
a 443 444
a 443 482
a 443 219
a 443 220
a 443 141
a 443 105
a 443 232
a 443 155
a 443 106
a 443 107
a 443 133
a 443 134
a 443 16
a 443 17
a 443 239
a 443 320
a 443 21
a 443 22
a 443 128
a 443 253
a 443 25
a 443 412
a 443 34
a 443 112
a 443 41
a 443 113
a 443 42
a 443 43
a 443 44
a 443 46
a 443 114
a 443 47
a 443 48
a 443 49
a 443 115
a 443 50
a 443 51
a 443 52
a 443 53
a 443 54
a 443 55
a 443 181
a 443 56
a 443 57
a 443 58
a 443 59
a 443 60
a 443 99
a 443 61
a 443 62
a 443 63
a 443 350
a 373 218
a 373 445
a 373 227
a 373 457
a 373 164
a 373 323
a 373 407
a 373 269
a 373 110
a 373 31
a 373 465
a 373 285
a 373 372
a 373 318
a 373 7
a 373 148
a 373 84
a 373 10
a 373 102
a 373 151
a 373 397
a 373 441
a 373 349
a 373 378
a 373 220
a 373 104
a 373 222
a 373 225
a 373 381
a 373 12
a 373 13
a 373 141
a 373 232
a 373 233
a 373 106
a 373 107
a 373 16
a 373 17
a 373 20
a 373 236
a 373 240
a 373 21
a 373 242
a 373 127
a 373 128
a 373 23
a 373 251
a 373 253
a 373 24
a 373 254
a 373 255
a 373 256
a 373 26
a 373 460
a 373 362
a 373 263
a 373 264
a 373 406
a 373 265
a 373 266
a 373 363
a 373 27
a 373 271
a 373 273
a 373 274
a 373 366
a 373 30
a 373 275
a 373 167
a 373 168
a 373 368
a 373 279
a 373 329
a 373 281
a 373 282
a 373 330
a 373 283
a 373 415
a 373 32
a 373 34
a 373 393
a 373 287
a 373 288
a 373 289
a 373 290
a 373 421
a 373 422
a 373 291
a 373 292
a 373 111
a 373 297
a 373 171
a 373 427
a 373 394
a 373 174
a 373 112
a 373 309
a 373 41
a 373 113
a 373 42
a 373 43
a 373 44
a 373 46
a 373 114
a 373 47
a 373 48
a 373 49
a 373 115
a 373 50
a 373 51
a 373 52
a 373 53
a 373 54
a 373 55
a 373 181
a 373 56
a 373 57
a 373 58
a 373 59
a 373 60
a 373 311
a 373 99
a 373 183
a 373 61
a 373 62
a 373 63
a 373 185
a 373 423
a 373 298
a 373 299
a 373 38
a 373 303
a 373 472
a 373 305
a 373 173
a 373 308
a 373 436
a 469 218
a 469 220
a 469 386
a 469 350
a 469 153
a 469 445
a 469 446
a 469 391
a 469 458
a 469 148
a 469 10
a 469 13
a 469 107
a 469 16
a 469 21
a 469 128
a 469 23
a 469 253
a 469 255
a 469 256
a 469 460
a 469 263
a 469 264
a 469 265
a 469 266
a 469 27
a 469 271
a 469 110
a 469 273
a 469 30
a 469 279
a 469 384
a 469 282
a 469 283
a 469 34
a 469 288
a 469 289
a 469 290
a 469 292
a 469 394
a 469 309
a 469 113
a 469 42
a 469 44
a 469 46
a 469 114
a 469 47
a 469 48
a 469 49
a 469 50
a 469 52
a 469 53
a 469 54
a 469 55
a 469 181
a 469 56
a 469 57
a 469 58
a 469 59
a 469 61
a 469 62
a 469 63
a 469 185
a 469 111
a 469 115
a 231 349
a 231 350
a 231 229
a 231 230
a 231 398
a 231 6
a 231 148
a 231 84
a 231 10
a 231 89
a 231 102
a 231 151
a 231 397
a 231 218
a 231 390
a 231 477
a 231 378
a 231 11
a 231 139
a 231 103
a 231 219
a 231 220
a 231 391
a 231 104
a 231 222
a 231 379
a 231 225
a 231 381
a 231 12
a 231 13
a 231 141
a 231 105
a 231 232
a 231 106
a 231 107
a 231 133
a 231 134
a 231 16
a 231 96
a 231 240
a 231 21
a 231 22
a 231 127
a 231 128
a 231 392
a 231 164
a 231 251
a 231 253
a 231 255
a 231 25
a 231 264
a 231 271
a 231 110
a 231 28
a 231 29
a 231 273
a 231 366
a 231 30
a 231 167
a 231 32
a 231 34
a 231 35
a 231 111
a 231 38
a 231 112
a 231 432
a 231 40
a 231 41
a 231 113
a 231 42
a 231 43
a 231 44
a 231 46
a 231 114
a 231 47
a 231 48
a 231 49
a 231 115
a 231 50
a 231 51
a 231 52
a 231 53
a 231 54
a 231 55
a 231 181
a 231 56
a 231 57
a 231 58
a 231 59
a 231 60
a 231 99
a 231 183
a 231 61
a 231 62
a 231 184
a 231 63
a 231 185
a 231 400
a 231 451
a 231 298
a 231 302
a 231 303
a 231 472
a 231 305
a 231 173
a 231 144
a 142 349
a 142 378
a 142 139
a 142 220
a 142 152
a 142 446
a 142 391
a 142 228
a 142 12
a 142 229
a 142 398
a 142 399
a 142 141
a 142 100
a 142 119
a 142 137
a 142 6
a 142 316
a 142 318
a 142 7
a 142 8
a 142 148
a 142 345
a 142 64
a 142 65
a 142 66
a 142 80
a 142 84
a 142 138
a 142 10
a 142 89
a 142 102
a 142 150
a 142 151
a 142 386
a 142 221
a 142 104
a 142 13
a 142 140
a 142 105
a 142 232
a 142 154
a 142 155
a 142 106
a 142 158
a 142 107
a 142 14
a 142 133
a 142 134
a 142 16
a 142 159
a 142 160
a 142 17
a 142 18
a 142 19
a 142 319
a 142 96
a 142 20
a 142 236
a 142 237
a 142 320
a 142 240
a 142 21
a 142 22
a 142 127
a 142 128
a 142 161
a 142 163
a 142 164
a 142 166
a 142 253
a 142 255
a 142 460
a 142 28
a 142 29
a 142 30
a 142 275
a 142 167
a 142 414
a 142 281
a 142 32
a 142 34
a 142 35
a 142 111
a 142 38
a 142 172
a 142 307
a 142 174
a 142 112
a 142 175
a 142 176
a 142 135
a 142 177
a 142 179
a 142 136
a 142 40
a 142 41
a 142 113
a 142 42
a 142 43
a 142 44
a 142 45
a 142 46
a 142 114
a 142 47
a 142 48
a 142 49
a 142 115
a 142 50
a 142 51
a 142 52
a 142 53
a 142 54
a 142 55
a 142 181
a 142 56
a 142 57
a 142 58
a 142 59
a 142 60
a 142 99
a 142 183
a 142 61
a 142 62
a 142 184
a 142 63
a 142 185
a 142 156
a 142 157
a 142 15
a 142 403
a 142 484
a 142 404
a 142 405
a 142 452
a 142 453
a 142 97
a 142 143
a 142 392
a 142 456
a 142 243
a 142 162
a 142 359
a 142 321
a 142 251
a 142 24
a 142 129
a 142 324
a 142 270
a 142 272
a 142 130
a 142 110
a 142 367
a 142 279
a 142 384
a 142 330
a 142 415
a 142 284
a 142 170
a 142 422
a 142 291
a 142 292
a 142 294
a 142 296
a 142 297
a 142 470
a 142 37
a 142 171
a 142 173
a 142 144
a 142 394
a 142 374
a 142 431
a 142 308
a 142 473
a 142 178
a 142 475
a 142 432
a 142 433
a 142 309
a 450 378
a 450 386
a 450 223
a 450 147
a 450 318
a 450 148
a 450 66
a 450 10
a 450 102
a 450 151
a 450 397
a 450 390
a 450 11
a 450 104
a 450 222
a 450 225
a 450 141
a 450 107
a 450 16
a 450 17
a 450 240
a 450 21
a 450 22
a 450 128
a 450 253
a 450 255
a 450 25
a 450 260
a 450 264
a 450 271
a 450 110
a 450 29
a 450 274
a 450 366
a 450 167
a 450 34
a 450 474
a 450 41
a 450 113
a 450 42
a 450 44
a 450 46
a 450 114
a 450 47
a 450 48
a 450 49
a 450 115
a 450 50
a 450 51
a 450 52
a 450 53
a 450 54
a 450 55
a 450 181
a 450 56
a 450 57
a 450 58
a 450 59
a 450 60
a 450 99
a 450 183
a 450 61
a 450 396
a 450 62
a 450 63
a 450 185
a 450 268
a 450 408
a 450 283
a 450 305
a 450 144
a 450 112
a 485 378
a 485 220
a 485 17
a 485 236
a 485 237
a 485 22
a 485 353
a 485 316
a 485 318
a 485 8
a 485 148
a 485 151
a 485 442
a 485 154
a 485 107
a 485 18
a 485 319
a 485 455
a 485 240
a 485 21
a 485 242
a 485 127
a 485 128
a 485 255
a 485 258
a 485 410
a 485 279
a 485 280
a 485 281
a 485 41
a 485 113
a 485 42
a 485 43
a 485 44
a 485 46
a 485 114
a 485 47
a 485 49
a 485 50
a 485 54
a 485 55
a 485 56
a 485 57
a 485 58
a 485 59
a 485 63
a 485 185
a 485 23
a 485 252
a 485 253
a 485 38
a 257 378
a 257 398
a 257 399
a 257 400
a 257 451
a 257 17
a 257 18
a 257 19
a 257 20
a 257 236
a 257 237
a 257 97
a 257 128
a 257 246
a 257 247
a 257 251
a 257 255
a 257 361
a 257 25
a 257 256
a 257 26
a 257 460
a 257 362
a 257 6
a 257 315
a 257 318
a 257 148
a 257 84
a 257 10
a 257 102
a 257 220
a 257 386
a 257 104
a 257 228
a 257 13
a 257 105
a 257 232
a 257 106
a 257 107
a 257 16
a 257 319
a 257 240
a 257 21
a 257 22
a 257 127
a 257 23
a 257 164
a 257 166
a 257 253
a 257 258
a 257 259
a 257 260
a 257 261
a 257 262
a 257 263
a 257 264
a 257 406
a 257 265
a 257 266
a 257 271
a 257 110
a 257 28
a 257 29
a 257 273
a 257 274
a 257 366
a 257 275
a 257 167
a 257 279
a 257 281
a 257 282
a 257 283
a 257 32
a 257 34
a 257 290
a 257 467
a 257 292
a 257 111
a 257 394
a 257 41
a 257 113
a 257 42
a 257 43
a 257 44
a 257 45
a 257 46
a 257 114
a 257 47
a 257 48
a 257 49
a 257 115
a 257 50
a 257 51
a 257 52
a 257 53
a 257 54
a 257 55
a 257 181
a 257 56
a 257 57
a 257 58
a 257 59
a 257 60
a 257 99
a 257 183
a 257 61
a 257 62
a 257 184
a 257 63
a 257 185
a 257 323
a 257 363
a 257 461
a 257 364
a 257 365
a 257 407
a 257 267
a 257 268
a 257 27
a 257 269
a 257 272
a 257 30
a 257 367
a 257 168
a 257 31
a 257 169
a 257 325
a 257 409
a 257 326
a 257 278
a 257 368
a 257 329
a 257 411
a 257 384
a 257 414
a 257 280
a 257 330
a 257 371
a 257 33
a 257 170
a 257 285
a 257 466
a 257 286
a 257 288
a 257 289
a 257 420
a 257 422
a 257 291
a 257 293
a 257 294
a 257 297
a 257 37
a 257 171
a 257 426
a 257 38
a 257 172
a 257 301
a 257 304
a 257 306
a 257 307
a 257 427
a 257 144
a 257 375
a 404 139
a 404 220
a 404 141
a 404 232
a 404 154
a 404 155
a 404 157
a 404 158
a 404 107
a 404 15
a 404 133
a 404 134
a 404 484
a 404 16
a 404 119
a 404 148
a 404 64
a 404 65
a 404 66
a 404 84
a 404 138
a 404 10
a 404 102
a 404 142
a 404 105
a 404 106
a 404 14
a 404 159
a 404 452
a 404 453
a 404 17
a 404 352
a 404 240
a 404 21
a 404 22
a 404 128
a 404 164
a 404 253
a 404 25
a 404 28
a 404 370
a 404 34
a 404 111
a 404 112
a 404 175
a 404 135
a 404 177
a 404 179
a 404 136
a 404 41
a 404 113
a 404 42
a 404 44
a 404 46
a 404 114
a 404 47
a 404 48
a 404 49
a 404 115
a 404 50
a 404 51
a 404 52
a 404 53
a 404 54
a 404 55
a 404 181
a 404 56
a 404 57
a 404 58
a 404 59
a 404 60
a 404 99
a 404 183
a 404 61
a 404 396
a 404 62
a 404 63
a 404 185
a 404 160
a 404 96
a 404 236
a 404 251
a 404 367
a 404 284
a 404 297
a 404 394
a 404 430
a 404 308
a 404 178
a 414 139
a 414 12
a 414 140
a 414 141
a 414 142
a 414 105
a 414 232
a 414 233
a 414 154
a 414 155
a 414 106
a 414 156
a 414 157
a 414 158
a 414 107
a 414 134
a 414 159
a 414 319
a 414 128
a 414 251
a 414 254
a 414 256
a 414 27
a 414 30
a 414 367
a 414 326
a 414 278
a 414 279
a 414 411
a 414 384
a 414 412
a 414 413
a 414 148
a 414 84
a 414 10
a 414 102
a 414 104
a 414 228
a 414 13
a 414 16
a 414 17
a 414 20
a 414 21
a 414 242
a 414 22
a 414 127
a 414 23
a 414 164
a 414 255
a 414 26
a 414 460
a 414 362
a 414 257
a 414 260
a 414 261
a 414 263
a 414 264
a 414 406
a 414 265
a 414 266
a 414 267
a 414 271
a 414 274
a 414 366
a 414 275
a 414 167
a 414 168
a 414 325
a 414 329
a 414 280
a 414 281
a 414 282
a 414 283
a 414 32
a 414 34
a 414 288
a 414 289
a 414 290
a 414 111
a 414 294
a 414 297
a 414 304
a 414 394
a 414 41
a 414 113
a 414 42
a 414 44
a 414 46
a 414 114
a 414 47
a 414 48
a 414 49
a 414 115
a 414 50
a 414 51
a 414 52
a 414 53
a 414 54
a 414 55
a 414 181
a 414 56
a 414 57
a 414 58
a 414 59
a 414 60
a 414 99
a 414 61
a 414 62
a 414 63
a 414 185
a 414 370
a 414 284
a 414 112
a 475 482
a 475 219
a 475 220
a 475 148
a 475 10
a 475 397
a 475 378
a 475 104
a 475 142
a 475 107
a 475 16
a 475 236
a 475 21
a 475 128
a 475 255
a 475 25
a 475 263
a 475 264
a 475 265
a 475 271
a 475 110
a 475 273
a 475 274
a 475 34
a 475 394
a 475 308
a 475 432
a 475 41
a 475 113
a 475 42
a 475 44
a 475 46
a 475 114
a 475 49
a 475 50
a 475 52
a 475 53
a 475 54
a 475 55
a 475 56
a 475 57
a 475 58
a 475 59
a 475 60
a 475 61
a 475 62
a 475 63
a 475 185
a 481 397
a 481 218
a 481 390
a 481 219
a 481 106
a 481 17
a 481 238
a 481 239
a 481 42
a 481 49
a 481 56
a 481 220
a 487 218
a 487 239
a 487 54
a 487 219
a 459 220
a 459 148
a 459 10
a 459 102
a 459 151
a 459 397
a 459 390
a 459 378
a 459 11
a 459 219
a 459 446
a 459 104
a 459 232
a 459 106
a 459 107
a 459 133
a 459 16
a 459 96
a 459 236
a 459 21
a 459 22
a 459 128
a 459 392
a 459 161
a 459 253
a 459 255
a 459 25
a 459 460
a 459 263
a 459 28
a 459 273
a 459 167
a 459 34
a 459 112
a 459 135
a 459 136
a 459 432
a 459 40
a 459 41
a 459 113
a 459 42
a 459 44
a 459 46
a 459 114
a 459 47
a 459 49
a 459 115
a 459 50
a 459 51
a 459 52
a 459 53
a 459 54
a 459 55
a 459 181
a 459 56
a 459 57
a 459 58
a 459 59
a 459 60
a 459 99
a 459 61
a 459 62
a 459 63
a 459 162
a 471 220
a 471 400
a 471 403
a 471 128
a 471 255
a 471 169
a 471 38
a 471 148
a 471 10
a 471 102
a 471 378
a 471 139
a 471 104
a 471 232
a 471 106
a 471 107
a 471 16
a 471 17
a 471 236
a 471 240
a 471 21
a 471 22
a 471 127
a 471 253
a 471 25
a 471 256
a 471 26
a 471 460
a 471 263
a 471 264
a 471 266
a 471 323
a 471 363
a 471 269
a 471 271
a 471 272
a 471 110
a 471 28
a 471 274
a 471 366
a 471 30
a 471 167
a 471 168
a 471 279
a 471 281
a 471 282
a 471 283
a 471 32
a 471 33
a 471 34
a 471 289
a 471 291
a 471 292
a 471 470
a 471 37
a 471 171
a 471 173
a 471 394
a 471 174
a 471 112
a 471 135
a 471 309
a 471 41
a 471 113
a 471 42
a 471 43
a 471 44
a 471 46
a 471 114
a 471 47
a 471 48
a 471 49
a 471 115
a 471 50
a 471 51
a 471 52
a 471 53
a 471 54
a 471 55
a 471 181
a 471 56
a 471 57
a 471 58
a 471 59
a 471 60
a 471 99
a 471 183
a 471 61
a 471 62
a 471 63
a 471 185
a 471 308
a 471 473
a 471 40
a 403 445
a 403 107
a 403 14
a 403 15
a 403 148
a 403 64
a 403 84
a 403 10
a 403 102
a 403 151
a 403 218
a 403 378
a 403 220
a 403 391
a 403 104
a 403 225
a 403 12
a 403 13
a 403 141
a 403 142
a 403 105
a 403 232
a 403 154
a 403 106
a 403 158
a 403 133
a 403 134
a 403 484
a 403 16
a 403 159
a 403 160
a 403 405
a 403 452
a 403 453
a 403 454
a 403 17
a 403 96
a 403 352
a 403 236
a 403 240
a 403 21
a 403 22
a 403 128
a 403 392
a 403 253
a 403 255
a 403 25
a 403 264
a 403 406
a 403 271
a 403 110
a 403 28
a 403 367
a 403 167
a 403 370
a 403 34
a 403 289
a 403 111
a 403 171
a 403 38
a 403 471
a 403 112
a 403 308
a 403 135
a 403 177
a 403 179
a 403 136
a 403 41
a 403 113
a 403 42
a 403 43
a 403 44
a 403 46
a 403 114
a 403 47
a 403 48
a 403 49
a 403 115
a 403 50
a 403 51
a 403 52
a 403 53
a 403 54
a 403 55
a 403 181
a 403 56
a 403 57
a 403 58
a 403 59
a 403 60
a 403 311
a 403 99
a 403 61
a 403 396
a 403 62
a 403 184
a 403 63
a 403 108
a 403 98
a 403 143
a 403 183
a 403 476
a 403 436
a 405 445
a 405 107
a 405 14
a 405 15
a 405 403
a 405 133
a 405 134
a 405 16
a 405 159
a 405 148
a 405 84
a 405 10
a 405 102
a 405 397
a 405 378
a 405 220
a 405 141
a 405 142
a 405 105
a 405 232
a 405 154
a 405 106
a 405 484
a 405 452
a 405 453
a 405 17
a 405 96
a 405 352
a 405 21
a 405 22
a 405 128
a 405 392
a 405 253
a 405 255
a 405 261
a 405 167
a 405 370
a 405 34
a 405 111
a 405 112
a 405 179
a 405 136
a 405 41
a 405 113
a 405 42
a 405 44
a 405 46
a 405 114
a 405 47
a 405 48
a 405 49
a 405 115
a 405 50
a 405 51
a 405 52
a 405 53
a 405 54
a 405 55
a 405 181
a 405 56
a 405 57
a 405 58
a 405 59
a 405 60
a 405 99
a 405 61
a 405 62
a 405 184
a 405 63
a 405 183
a 413 221
a 413 104
a 413 222
a 413 379
a 413 223
a 413 224
a 413 225
a 413 226
a 413 227
a 413 380
a 413 228
a 413 381
a 413 12
a 413 13
a 413 229
a 413 230
a 413 164
a 413 277
a 413 148
a 413 84
a 413 10
a 413 102
a 413 106
a 413 107
a 413 16
a 413 17
a 413 240
a 413 21
a 413 242
a 413 22
a 413 128
a 413 23
a 413 251
a 413 253
a 413 255
a 413 256
a 413 26
a 413 460
a 413 362
a 413 264
a 413 406
a 413 265
a 413 266
a 413 323
a 413 363
a 413 27
a 413 270
a 413 271
a 413 110
a 413 28
a 413 29
a 413 274
a 413 168
a 413 169
a 413 278
a 413 368
a 413 279
a 413 329
a 413 414
a 413 281
a 413 282
a 413 371
a 413 283
a 413 32
a 413 34
a 413 288
a 413 289
a 413 290
a 413 111
a 413 470
a 413 394
a 413 41
a 413 113
a 413 42
a 413 44
a 413 46
a 413 114
a 413 47
a 413 48
a 413 49
a 413 115
a 413 50
a 413 51
a 413 52
a 413 53
a 413 54
a 413 55
a 413 181
a 413 56
a 413 57
a 413 58
a 413 59
a 413 60
a 413 99
a 413 61
a 413 62
a 413 63
a 413 185
a 413 305
a 426 221
a 426 104
a 426 298
a 426 318
a 426 148
a 426 84
a 426 10
a 426 102
a 426 151
a 426 378
a 426 220
a 426 222
a 426 225
a 426 228
a 426 400
a 426 105
a 426 232
a 426 106
a 426 107
a 426 16
a 426 17
a 426 236
a 426 240
a 426 21
a 426 22
a 426 127
a 426 128
a 426 23
a 426 164
a 426 251
a 426 252
a 426 254
a 426 255
a 426 256
a 426 26
a 426 460
a 426 257
a 426 260
a 426 263
a 426 264
a 426 406
a 426 265
a 426 266
a 426 365
a 426 27
a 426 271
a 426 272
a 426 110
a 426 273
a 426 274
a 426 366
a 426 30
a 426 464
a 426 275
a 426 167
a 426 168
a 426 277
a 426 326
a 426 328
a 426 278
a 426 368
a 426 279
a 426 280
a 426 281
a 426 282
a 426 283
a 426 32
a 426 33
a 426 34
a 426 285
a 426 289
a 426 290
a 426 331
a 426 420
a 426 291
a 426 111
a 426 37
a 426 299
a 426 38
a 426 173
a 426 394
a 426 429
a 426 112
a 426 41
a 426 113
a 426 42
a 426 43
a 426 44
a 426 46
a 426 114
a 426 47
a 426 48
a 426 49
a 426 115
a 426 50
a 426 51
a 426 52
a 426 53
a 426 54
a 426 55
a 426 181
a 426 56
a 426 57
a 426 58
a 426 59
a 426 60
a 426 99
a 426 183
a 426 61
a 426 62
a 426 63
a 426 185
a 426 472
a 229 227
a 229 119
a 229 6
a 229 318
a 229 148
a 229 64
a 229 65
a 229 66
a 229 84
a 229 138
a 229 10
a 229 89
a 229 102
a 229 151
a 229 397
a 229 218
a 229 390
a 229 349
a 229 378
a 229 11
a 229 103
a 229 219
a 229 220
a 229 386
a 229 153
a 229 221
a 229 104
a 229 222
a 229 379
a 229 225
a 229 228
a 229 381
a 229 12
a 229 13
a 229 448
a 229 230
a 229 231
a 229 142
a 229 105
a 229 232
a 229 154
a 229 106
a 229 107
a 229 14
a 229 133
a 229 134
a 229 16
a 229 159
a 229 17
a 229 96
a 229 20
a 229 236
a 229 237
a 229 239
a 229 240
a 229 21
a 229 22
a 229 127
a 229 128
a 229 392
a 229 164
a 229 251
a 229 253
a 229 255
a 229 25
a 229 256
a 229 26
a 229 264
a 229 266
a 229 271
a 229 110
a 229 28
a 229 29
a 229 273
a 229 30
a 229 167
a 229 413
a 229 32
a 229 34
a 229 289
a 229 35
a 229 111
a 229 295
a 229 297
a 229 36
a 229 37
a 229 38
a 229 174
a 229 112
a 229 175
a 229 431
a 229 308
a 229 135
a 229 177
a 229 178
a 229 179
a 229 136
a 229 432
a 229 39
a 229 41
a 229 113
a 229 42
a 229 43
a 229 44
a 229 45
a 229 46
a 229 114
a 229 47
a 229 48
a 229 49
a 229 115
a 229 50
a 229 51
a 229 52
a 229 53
a 229 54
a 229 55
a 229 181
a 229 56
a 229 57
a 229 58
a 229 59
a 229 60
a 229 99
a 229 183
a 229 61
a 229 62
a 229 184
a 229 63
a 229 185
a 229 31
a 229 298
a 229 303
a 229 472
a 229 305
a 229 173
a 230 227
a 230 229
a 230 119
a 230 6
a 230 318
a 230 148
a 230 64
a 230 65
a 230 66
a 230 84
a 230 10
a 230 89
a 230 102
a 230 151
a 230 397
a 230 218
a 230 390
a 230 349
a 230 378
a 230 11
a 230 103
a 230 219
a 230 220
a 230 350
a 230 446
a 230 391
a 230 104
a 230 222
a 230 379
a 230 225
a 230 381
a 230 12
a 230 13
a 230 231
a 230 141
a 230 105
a 230 232
a 230 154
a 230 106
a 230 158
a 230 107
a 230 14
a 230 133
a 230 134
a 230 16
a 230 159
a 230 17
a 230 96
a 230 240
a 230 21
a 230 22
a 230 127
a 230 128
a 230 392
a 230 164
a 230 251
a 230 253
a 230 255
a 230 25
a 230 264
a 230 271
a 230 110
a 230 28
a 230 29
a 230 273
a 230 30
a 230 167
a 230 413
a 230 32
a 230 34
a 230 111
a 230 38
a 230 112
a 230 175
a 230 135
a 230 179
a 230 136
a 230 432
a 230 39
a 230 40
a 230 41
a 230 113
a 230 42
a 230 43
a 230 44
a 230 45
a 230 46
a 230 114
a 230 47
a 230 48
a 230 49
a 230 115
a 230 50
a 230 51
a 230 52
a 230 53
a 230 54
a 230 55
a 230 181
a 230 56
a 230 57
a 230 58
a 230 59
a 230 60
a 230 99
a 230 183
a 230 61
a 230 62
a 230 184
a 230 63
a 230 185
a 230 31
a 230 298
a 230 303
a 230 472
a 230 305
a 230 173
a 420 227
a 420 161
a 420 162
a 420 31
a 420 318
a 420 148
a 420 84
a 420 10
a 420 102
a 420 397
a 420 220
a 420 104
a 420 12
a 420 13
a 420 141
a 420 105
a 420 232
a 420 233
a 420 106
a 420 107
a 420 14
a 420 133
a 420 134
a 420 16
a 420 17
a 420 96
a 420 20
a 420 240
a 420 21
a 420 242
a 420 22
a 420 127
a 420 128
a 420 23
a 420 164
a 420 251
a 420 253
a 420 254
a 420 255
a 420 256
a 420 26
a 420 460
a 420 362
a 420 257
a 420 260
a 420 263
a 420 264
a 420 406
a 420 265
a 420 266
a 420 323
a 420 363
a 420 407
a 420 271
a 420 110
a 420 273
a 420 274
a 420 366
a 420 30
a 420 275
a 420 167
a 420 168
a 420 278
a 420 368
a 420 279
a 420 281
a 420 282
a 420 330
a 420 371
a 420 283
a 420 32
a 420 34
a 420 285
a 420 372
a 420 287
a 420 288
a 420 289
a 420 290
a 420 419
a 420 292
a 420 111
a 420 171
a 420 427
a 420 394
a 420 174
a 420 429
a 420 112
a 420 309
a 420 40
a 420 41
a 420 113
a 420 42
a 420 43
a 420 44
a 420 46
a 420 114
a 420 47
a 420 48
a 420 49
a 420 115
a 420 50
a 420 51
a 420 52
a 420 53
a 420 54
a 420 55
a 420 181
a 420 56
a 420 57
a 420 58
a 420 59
a 420 60
a 420 99
a 420 183
a 420 61
a 420 62
a 420 63
a 420 185
a 420 298
a 420 426
a 420 299
a 420 38
a 420 303
a 420 472
a 420 305
a 420 173
a 448 229
a 448 318
a 448 148
a 448 10
a 448 102
a 448 220
a 448 221
a 448 104
a 448 222
a 448 379
a 448 225
a 448 381
a 448 12
a 448 447
a 448 232
a 448 154
a 448 106
a 448 107
a 448 16
a 448 96
a 448 240
a 448 21
a 448 22
a 448 128
a 448 164
a 448 251
a 448 253
a 448 255
a 448 25
a 448 265
a 448 271
a 448 110
a 448 28
a 448 29
a 448 273
a 448 30
a 448 167
a 448 279
a 448 34
a 448 292
a 448 111
a 448 295
a 448 296
a 448 297
a 448 112
a 448 41
a 448 113
a 448 42
a 448 43
a 448 44
a 448 46
a 448 114
a 448 47
a 448 48
a 448 49
a 448 115
a 448 50
a 448 51
a 448 52
a 448 53
a 448 54
a 448 55
a 448 181
a 448 56
a 448 57
a 448 58
a 448 59
a 448 60
a 448 99
a 448 61
a 448 62
a 448 63
a 448 185
a 448 284
a 448 416
a 448 393
a 448 290
a 448 294
a 448 38
a 448 427
a 448 308
a 431 229
a 431 291
a 431 294
a 431 297
a 431 112
a 431 318
a 431 148
a 431 84
a 431 10
a 431 102
a 431 151
a 431 441
a 431 220
a 431 104
a 431 225
a 431 12
a 431 13
a 431 142
a 431 105
a 431 232
a 431 106
a 431 107
a 431 133
a 431 16
a 431 17
a 431 236
a 431 240
a 431 21
a 431 22
a 431 128
a 431 161
a 431 255
a 431 25
a 431 256
a 431 460
a 431 263
a 431 323
a 431 363
a 431 271
a 431 110
a 431 366
a 431 30
a 431 32
a 431 34
a 431 111
a 431 296
a 431 38
a 431 394
a 431 429
a 431 41
a 431 113
a 431 42
a 431 43
a 431 44
a 431 46
a 431 114
a 431 47
a 431 48
a 431 49
a 431 115
a 431 50
a 431 51
a 431 52
a 431 53
a 431 54
a 431 55
a 431 181
a 431 56
a 431 57
a 431 58
a 431 59
a 431 60
a 431 99
a 431 183
a 431 61
a 431 62
a 431 63
a 431 185
a 308 229
a 308 398
a 308 15
a 308 403
a 308 133
a 308 108
a 308 98
a 308 143
a 308 128
a 308 167
a 308 173
a 308 112
a 308 119
a 308 6
a 308 318
a 308 148
a 308 64
a 308 65
a 308 66
a 308 84
a 308 138
a 308 10
a 308 102
a 308 151
a 308 218
a 308 441
a 308 349
a 308 477
a 308 378
a 308 103
a 308 220
a 308 153
a 308 391
a 308 104
a 308 222
a 308 225
a 308 381
a 308 12
a 308 13
a 308 448
a 308 141
a 308 142
a 308 105
a 308 232
a 308 106
a 308 158
a 308 107
a 308 14
a 308 134
a 308 16
a 308 159
a 308 404
a 308 17
a 308 96
a 308 352
a 308 236
a 308 237
a 308 239
a 308 240
a 308 21
a 308 22
a 308 127
a 308 392
a 308 164
a 308 251
a 308 255
a 308 256
a 308 26
a 308 460
a 308 259
a 308 263
a 308 264
a 308 406
a 308 265
a 308 266
a 308 461
a 308 129
a 308 271
a 308 110
a 308 28
a 308 273
a 308 274
a 308 366
a 308 30
a 308 275
a 308 168
a 308 169
a 308 279
a 308 280
a 308 282
a 308 283
a 308 32
a 308 34
a 308 287
a 308 289
a 308 373
a 308 422
a 308 35
a 308 292
a 308 111
a 308 295
a 308 297
a 308 171
a 308 38
a 308 471
a 308 427
a 308 394
a 308 174
a 308 429
a 308 175
a 308 176
a 308 473
a 308 135
a 308 177
a 308 179
a 308 136
a 308 41
a 308 113
a 308 42
a 308 43
a 308 44
a 308 46
a 308 114
a 308 47
a 308 48
a 308 49
a 308 115
a 308 50
a 308 51
a 308 52
a 308 53
a 308 54
a 308 55
a 308 181
a 308 56
a 308 57
a 308 58
a 308 59
a 308 60
a 308 99
a 308 183
a 308 61
a 308 396
a 308 62
a 308 184
a 308 63
a 308 185
a 308 178
a 308 475
a 308 40
a 308 385
a 447 148
a 447 10
a 447 151
a 447 378
a 447 221
a 447 104
a 447 222
a 447 225
a 447 381
a 447 12
a 447 141
a 447 154
a 447 155
a 447 106
a 447 158
a 447 107
a 447 16
a 447 17
a 447 96
a 447 236
a 447 237
a 447 240
a 447 21
a 447 127
a 447 128
a 447 164
a 447 253
a 447 254
a 447 255
a 447 25
a 447 256
a 447 263
a 447 264
a 447 406
a 447 265
a 447 271
a 447 110
a 447 29
a 447 273
a 447 274
a 447 30
a 447 167
a 447 278
a 447 279
a 447 280
a 447 281
a 447 34
a 447 290
a 447 291
a 447 296
a 447 297
a 447 40
a 447 41
a 447 113
a 447 42
a 447 44
a 447 46
a 447 114
a 447 47
a 447 49
a 447 50
a 447 51
a 447 52
a 447 53
a 447 54
a 447 55
a 447 181
a 447 56
a 447 57
a 447 58
a 447 59
a 447 60
a 447 61
a 447 396
a 447 63
a 447 185
a 447 448
a 447 393
a 447 111
a 447 294
a 447 38
a 449 318
a 449 148
a 449 10
a 449 151
a 449 390
a 449 349
a 449 378
a 449 11
a 449 219
a 449 220
a 449 446
a 449 391
a 449 104
a 449 222
a 449 225
a 449 228
a 449 381
a 449 12
a 449 399
a 449 451
a 449 107
a 449 14
a 449 16
a 449 17
a 449 96
a 449 240
a 449 21
a 449 22
a 449 127
a 449 128
a 449 392
a 449 164
a 449 251
a 449 253
a 449 255
a 449 25
a 449 264
a 449 271
a 449 110
a 449 28
a 449 29
a 449 273
a 449 30
a 449 167
a 449 282
a 449 34
a 449 432
a 449 40
a 449 41
a 449 113
a 449 42
a 449 43
a 449 44
a 449 46
a 449 114
a 449 47
a 449 48
a 449 49
a 449 115
a 449 50
a 449 53
a 449 54
a 449 55
a 449 181
a 449 56
a 449 57
a 449 58
a 449 59
a 449 60
a 449 61
a 449 62
a 449 63
a 399 449
a 399 318
a 399 148
a 399 84
a 399 10
a 399 102
a 399 151
a 399 390
a 399 349
a 399 378
a 399 11
a 399 219
a 399 220
a 399 446
a 399 391
a 399 104
a 399 222
a 399 225
a 399 228
a 399 381
a 399 12
a 399 13
a 399 451
a 399 141
a 399 142
a 399 105
a 399 232
a 399 106
a 399 107
a 399 14
a 399 133
a 399 16
a 399 17
a 399 236
a 399 240
a 399 21
a 399 22
a 399 127
a 399 128
a 399 392
a 399 164
a 399 251
a 399 253
a 399 255
a 399 25
a 399 256
a 399 26
a 399 460
a 399 362
a 399 257
a 399 260
a 399 261
a 399 263
a 399 264
a 399 406
a 399 265
a 399 266
a 399 461
a 399 324
a 399 269
a 399 271
a 399 110
a 399 273
a 399 274
a 399 366
a 399 30
a 399 367
a 399 167
a 399 168
a 399 368
a 399 279
a 399 282
a 399 32
a 399 34
a 399 111
a 399 296
a 399 297
a 399 38
a 399 301
a 399 306
a 399 112
a 399 136
a 399 432
a 399 41
a 399 113
a 399 42
a 399 43
a 399 44
a 399 46
a 399 114
a 399 47
a 399 48
a 399 49
a 399 115
a 399 50
a 399 51
a 399 52
a 399 53
a 399 54
a 399 55
a 399 181
a 399 56
a 399 57
a 399 58
a 399 59
a 399 60
a 399 99
a 399 183
a 399 61
a 399 62
a 399 63
a 399 185
a 399 400
a 399 401
a 399 402
a 399 134
a 399 302
a 399 303
a 451 449
a 451 399
a 451 402
a 451 318
a 451 148
a 451 10
a 451 89
a 451 102
a 451 151
a 451 349
a 451 378
a 451 139
a 451 219
a 451 220
a 451 446
a 451 391
a 451 104
a 451 222
a 451 225
a 451 228
a 451 381
a 451 12
a 451 231
a 451 140
a 451 141
a 451 155
a 451 106
a 451 107
a 451 16
a 451 17
a 451 240
a 451 21
a 451 22
a 451 127
a 451 128
a 451 23
a 451 164
a 451 109
a 451 251
a 451 253
a 451 255
a 451 25
a 451 257
a 451 261
a 451 264
a 451 271
a 451 110
a 451 28
a 451 29
a 451 273
a 451 274
a 451 366
a 451 30
a 451 367
a 451 167
a 451 168
a 451 279
a 451 283
a 451 34
a 451 285
a 451 289
a 451 299
a 451 38
a 451 307
a 451 144
a 451 112
a 451 41
a 451 113
a 451 42
a 451 44
a 451 46
a 451 114
a 451 47
a 451 48
a 451 49
a 451 115
a 451 50
a 451 51
a 451 52
a 451 53
a 451 54
a 451 55
a 451 181
a 451 56
a 451 57
a 451 58
a 451 59
a 451 60
a 451 99
a 451 183
a 451 61
a 451 62
a 451 63
a 451 185
a 451 302
a 144 451
a 144 232
a 144 154
a 144 17
a 144 97
a 144 143
a 144 127
a 144 128
a 144 325
a 144 330
a 144 331
a 144 291
a 144 292
a 144 294
a 144 38
a 144 301
a 144 307
a 144 100
a 144 119
a 144 148
a 144 64
a 144 78
a 144 80
a 144 83
a 144 84
a 144 10
a 144 89
a 144 101
a 144 102
a 144 151
a 144 397
a 144 441
a 144 349
a 144 477
a 144 378
a 144 139
a 144 220
a 144 221
a 144 104
a 144 222
a 144 225
a 144 381
a 144 12
a 144 231
a 144 450
a 144 141
a 144 142
a 144 105
a 144 155
a 144 106
a 144 107
a 144 14
a 144 133
a 144 134
a 144 16
a 144 159
a 144 19
a 144 20
a 144 236
a 144 108
a 144 240
a 144 21
a 144 22
a 144 23
a 144 164
a 144 109
a 144 359
a 144 251
a 144 252
a 144 253
a 144 255
a 144 25
a 144 256
a 144 26
a 144 460
a 144 257
a 144 261
a 144 263
a 144 264
a 144 406
a 144 265
a 144 266
a 144 323
a 144 129
a 144 27
a 144 269
a 144 271
a 144 130
a 144 110
a 144 28
a 144 273
a 144 274
a 144 366
a 144 30
a 144 275
a 144 367
a 144 167
a 144 168
a 144 279
a 144 412
a 144 281
a 144 282
a 144 283
a 144 32
a 144 34
a 144 372
a 144 286
a 144 289
a 144 467
a 144 111
a 144 295
a 144 296
a 144 297
a 144 470
a 144 425
a 144 37
a 144 171
a 144 306
a 144 394
a 144 174
a 144 429
a 144 112
a 144 135
a 144 179
a 144 136
a 144 309
a 144 40
a 144 41
a 144 113
a 144 42
a 144 43
a 144 44
a 144 45
a 144 46
a 144 114
a 144 47
a 144 48
a 144 49
a 144 115
a 144 50
a 144 51
a 144 52
a 144 53
a 144 54
a 144 55
a 144 181
a 144 56
a 144 57
a 144 58
a 144 59
a 144 60
a 144 99
a 144 183
a 144 61
a 144 396
a 144 62
a 144 184
a 144 63
a 144 185
a 144 374
a 144 182
a 144 312
a 144 116
a 484 154
a 484 155
a 484 158
a 484 107
a 484 234
a 484 14
a 484 15
a 484 403
a 484 133
a 484 134
a 484 148
a 484 151
a 484 141
a 484 142
a 484 16
a 484 404
a 484 160
a 484 452
a 484 453
a 484 17
a 484 319
a 484 352
a 484 455
a 484 236
a 484 237
a 484 240
a 484 21
a 484 128
a 484 251
a 484 253
a 484 263
a 484 264
a 484 406
a 484 324
a 484 274
a 484 370
a 484 112
a 484 136
a 484 40
a 484 41
a 484 113
a 484 42
a 484 44
a 484 46
a 484 114
a 484 47
a 484 49
a 484 50
a 484 53
a 484 54
a 484 55
a 484 181
a 484 56
a 484 57
a 484 58
a 484 59
a 484 60
a 484 61
a 484 62
a 484 63
a 484 159
a 484 405
a 484 366
a 484 367
a 452 154
a 452 155
a 452 106
a 452 158
a 452 107
a 452 14
a 452 15
a 452 403
a 452 133
a 452 134
a 452 484
a 452 16
a 452 159
a 452 404
a 452 160
a 452 405
a 452 148
a 452 10
a 452 220
a 452 141
a 452 142
a 452 453
a 452 17
a 452 96
a 452 352
a 452 21
a 452 22
a 452 128
a 452 253
a 452 258
a 452 264
a 452 406
a 452 274
a 452 367
a 452 370
a 452 34
a 452 112
a 452 41
a 452 113
a 452 42
a 452 44
a 452 46
a 452 114
a 452 47
a 452 49
a 452 50
a 452 51
a 452 52
a 452 53
a 452 54
a 452 55
a 452 181
a 452 56
a 452 57
a 452 58
a 452 59
a 452 60
a 452 61
a 452 62
a 452 63
a 452 366
a 452 170
a 452 136
a 453 154
a 453 155
a 453 158
a 453 107
a 453 234
a 453 15
a 453 403
a 453 134
a 453 484
a 453 16
a 453 159
a 453 404
a 453 160
a 453 405
a 453 452
a 453 148
a 453 10
a 453 151
a 453 141
a 453 142
a 453 14
a 453 133
a 453 17
a 453 352
a 453 21
a 453 128
a 453 251
a 453 263
a 453 264
a 453 406
a 453 274
a 453 370
a 453 112
a 453 136
a 453 40
a 453 41
a 453 113
a 453 42
a 453 44
a 453 46
a 453 114
a 453 47
a 453 49
a 453 50
a 453 52
a 453 53
a 453 54
a 453 55
a 453 181
a 453 56
a 453 57
a 453 58
a 453 59
a 453 60
a 453 61
a 453 62
a 453 63
a 453 366
a 453 367
a 454 154
a 454 155
a 454 107
a 454 234
a 454 15
a 454 403
a 454 134
a 454 16
a 454 10
a 454 141
a 454 17
a 454 128
a 454 263
a 454 264
a 454 406
a 454 370
a 454 112
a 454 41
a 454 113
a 454 42
a 454 44
a 454 46
a 454 114
a 454 49
a 454 50
a 454 53
a 454 54
a 454 55
a 454 56
a 454 57
a 454 58
a 454 59
a 454 61
a 454 62
a 454 63
a 454 367
a 370 154
a 370 155
a 370 157
a 370 234
a 370 14
a 370 15
a 370 403
a 370 133
a 370 134
a 370 484
a 370 16
a 370 159
a 370 404
a 370 160
a 370 405
a 370 452
a 370 453
a 370 454
a 370 127
a 370 128
a 370 367
a 370 279
a 370 318
a 370 7
a 370 148
a 370 84
a 370 10
a 370 101
a 370 102
a 370 151
a 370 442
a 370 220
a 370 104
a 370 13
a 370 141
a 370 105
a 370 232
a 370 106
a 370 107
a 370 17
a 370 319
a 370 352
a 370 455
a 370 20
a 370 236
a 370 237
a 370 239
a 370 21
a 370 242
a 370 22
a 370 23
a 370 392
a 370 251
a 370 255
a 370 256
a 370 26
a 370 460
a 370 261
a 370 263
a 370 264
a 370 406
a 370 265
a 370 266
a 370 324
a 370 27
a 370 269
a 370 271
a 370 110
a 370 28
a 370 274
a 370 30
a 370 275
a 370 329
a 370 412
a 370 414
a 370 281
a 370 282
a 370 371
a 370 283
a 370 32
a 370 34
a 370 284
a 370 417
a 370 286
a 370 288
a 370 289
a 370 290
a 370 292
a 370 111
a 370 296
a 370 297
a 370 394
a 370 112
a 370 135
a 370 41
a 370 113
a 370 42
a 370 43
a 370 44
a 370 46
a 370 114
a 370 47
a 370 48
a 370 49
a 370 115
a 370 50
a 370 51
a 370 52
a 370 53
a 370 54
a 370 55
a 370 181
a 370 56
a 370 57
a 370 58
a 370 59
a 370 60
a 370 99
a 370 183
a 370 61
a 370 62
a 370 63
a 370 185
a 370 170
a 370 307
a 417 106
a 417 352
a 417 25
a 417 30
a 417 370
a 417 284
a 417 416
a 417 119
a 417 148
a 417 64
a 417 65
a 417 66
a 417 84
a 417 138
a 417 10
a 417 102
a 417 397
a 417 141
a 417 105
a 417 232
a 417 107
a 417 14
a 417 133
a 417 16
a 417 236
a 417 240
a 417 21
a 417 22
a 417 127
a 417 128
a 417 164
a 417 253
a 417 255
a 417 256
a 417 460
a 417 264
a 417 265
a 417 266
a 417 363
a 417 271
a 417 110
a 417 274
a 417 366
a 417 167
a 417 279
a 417 282
a 417 32
a 417 289
a 417 292
a 417 111
a 417 296
a 417 297
a 417 394
a 417 174
a 417 112
a 417 175
a 417 176
a 417 135
a 417 177
a 417 136
a 417 309
a 417 41
a 417 113
a 417 42
a 417 44
a 417 46
a 417 114
a 417 47
a 417 48
a 417 49
a 417 115
a 417 50
a 417 51
a 417 52
a 417 53
a 417 54
a 417 55
a 417 181
a 417 56
a 417 57
a 417 58
a 417 59
a 417 60
a 417 99
a 417 183
a 417 61
a 417 62
a 417 63
a 417 185
a 417 170
a 417 38
a 470 107
a 470 255
a 470 365
a 470 31
a 470 169
a 470 413
a 470 422
a 470 291
a 470 297
a 470 36
a 470 316
a 470 318
a 470 148
a 470 10
a 470 102
a 470 142
a 470 16
a 470 17
a 470 21
a 470 127
a 470 128
a 470 253
a 470 25
a 470 460
a 470 258
a 470 259
a 470 261
a 470 406
a 470 167
a 470 279
a 470 34
a 470 467
a 470 301
a 470 394
a 470 41
a 470 42
a 470 43
a 470 44
a 470 46
a 470 114
a 470 47
a 470 48
a 470 49
a 470 50
a 470 51
a 470 52
a 470 53
a 470 54
a 470 55
a 470 181
a 470 56
a 470 57
a 470 58
a 470 59
a 470 60
a 470 99
a 470 183
a 470 61
a 470 62
a 470 63
a 470 185
a 470 425
a 470 471
a 470 173
a 470 307
a 470 144
a 470 374
a 470 113
a 234 119
a 234 6
a 234 148
a 234 64
a 234 65
a 234 66
a 234 84
a 234 138
a 234 10
a 234 102
a 234 11
a 234 220
a 234 386
a 234 141
a 234 105
a 234 232
a 234 154
a 234 106
a 234 157
a 234 158
a 234 14
a 234 15
a 234 133
a 234 134
a 234 484
a 234 16
a 234 159
a 234 160
a 234 453
a 234 454
a 234 17
a 234 352
a 234 20
a 234 240
a 234 21
a 234 22
a 234 128
a 234 161
a 234 162
a 234 164
a 234 253
a 234 255
a 234 28
a 234 410
a 234 279
a 234 370
a 234 32
a 234 34
a 234 35
a 234 111
a 234 38
a 234 112
a 234 175
a 234 176
a 234 135
a 234 177
a 234 178
a 234 179
a 234 136
a 234 41
a 234 113
a 234 42
a 234 43
a 234 44
a 234 45
a 234 180
a 234 46
a 234 114
a 234 47
a 234 48
a 234 49
a 234 115
a 234 50
a 234 51
a 234 52
a 234 53
a 234 54
a 234 55
a 234 181
a 234 56
a 234 57
a 234 58
a 234 59
a 234 60
a 234 311
a 234 99
a 234 183
a 234 61
a 234 62
a 234 184
a 234 63
a 234 312
a 424 15
a 424 148
a 424 84
a 424 10
a 424 102
a 424 104
a 424 141
a 424 232
a 424 106
a 424 107
a 424 14
a 424 134
a 424 16
a 424 17
a 424 236
a 424 21
a 424 22
a 424 128
a 424 253
a 424 25
a 424 460
a 424 264
a 424 28
a 424 32
a 424 111
a 424 294
a 424 296
a 424 297
a 424 394
a 424 112
a 424 41
a 424 113
a 424 42
a 424 43
a 424 44
a 424 46
a 424 114
a 424 47
a 424 48
a 424 49
a 424 50
a 424 51
a 424 52
a 424 53
a 424 54
a 424 55
a 424 181
a 424 56
a 424 57
a 424 58
a 424 59
a 424 60
a 424 99
a 424 183
a 424 61
a 424 62
a 424 63
a 424 185
a 262 17
a 262 246
a 262 247
a 262 255
a 262 361
a 262 25
a 262 256
a 262 26
a 262 362
a 262 257
a 262 258
a 262 259
a 262 260
a 262 261
a 262 6
a 262 148
a 262 20
a 262 21
a 262 127
a 262 128
a 262 460
a 262 28
a 262 29
a 262 279
a 262 283
a 262 34
a 262 467
a 262 41
a 262 113
a 262 42
a 262 43
a 262 44
a 262 46
a 262 114
a 262 47
a 262 48
a 262 49
a 262 115
a 262 50
a 262 52
a 262 53
a 262 54
a 262 55
a 262 56
a 262 57
a 262 58
a 262 59
a 262 60
a 262 62
a 262 185
a 262 263
a 262 264
a 262 406
a 262 265
a 262 266
a 262 363
a 262 268
a 262 27
a 262 269
a 262 270
a 262 271
a 262 274
a 262 30
a 262 367
a 262 167
a 262 297
a 262 171
a 262 172
a 262 301
a 262 375
a 393 17
a 393 167
a 393 32
a 393 416
a 393 148
a 393 80
a 393 83
a 393 387
a 393 10
a 393 88
a 393 102
a 393 447
a 393 448
a 393 107
a 393 134
a 393 16
a 393 240
a 393 21
a 393 242
a 393 127
a 393 128
a 393 23
a 393 255
a 393 256
a 393 460
a 393 263
a 393 264
a 393 406
a 393 265
a 393 266
a 393 323
a 393 363
a 393 271
a 393 110
a 393 273
a 393 274
a 393 279
a 393 34
a 393 285
a 393 287
a 393 288
a 393 289
a 393 290
a 393 467
a 393 419
a 393 292
a 393 111
a 393 295
a 393 296
a 393 297
a 393 427
a 393 394
a 393 309
a 393 41
a 393 113
a 393 42
a 393 44
a 393 46
a 393 114
a 393 47
a 393 48
a 393 49
a 393 115
a 393 50
a 393 51
a 393 52
a 393 53
a 393 54
a 393 55
a 393 181
a 393 56
a 393 57
a 393 58
a 393 59
a 393 60
a 393 99
a 393 61
a 393 62
a 393 63
a 393 185
a 393 465
a 393 373
a 393 421
a 393 423
a 393 40
a 351 18
a 351 7
a 351 148
a 351 64
a 351 152
a 351 154
a 351 155
a 351 107
a 351 17
a 351 19
a 351 129
a 351 324
a 351 281
a 351 41
a 351 113
a 351 42
a 351 43
a 351 44
a 351 114
a 351 49
a 351 54
a 351 55
a 351 56
a 351 57
a 351 58
a 351 59
a 415 20
a 415 128
a 415 255
a 415 361
a 415 25
a 415 256
a 415 26
a 415 460
a 415 362
a 415 407
a 415 27
a 415 269
a 415 28
a 415 30
a 415 464
a 415 167
a 415 276
a 415 326
a 415 368
a 415 279
a 415 411
a 415 280
a 415 281
a 415 330
a 415 148
a 415 84
a 415 10
a 415 102
a 415 104
a 415 141
a 415 142
a 415 105
a 415 154
a 415 106
a 415 158
a 415 107
a 415 16
a 415 17
a 415 240
a 415 21
a 415 22
a 415 127
a 415 246
a 415 253
a 415 360
a 415 260
a 415 263
a 415 264
a 415 406
a 415 265
a 415 271
a 415 275
a 415 168
a 415 282
a 415 283
a 415 32
a 415 34
a 415 285
a 415 287
a 415 288
a 415 289
a 415 290
a 415 331
a 415 111
a 415 297
a 415 301
a 415 307
a 415 427
a 415 394
a 415 41
a 415 113
a 415 42
a 415 44
a 415 46
a 415 114
a 415 47
a 415 49
a 415 115
a 415 50
a 415 51
a 415 52
a 415 53
a 415 54
a 415 55
a 415 181
a 415 56
a 415 57
a 415 58
a 415 59
a 415 60
a 415 99
a 415 61
a 415 62
a 415 63
a 415 185
a 415 33
a 415 372
a 415 419
a 415 373
a 415 422
a 415 423
a 415 292
a 415 299
a 415 38
a 415 302
a 415 304
a 415 135
a 357 108
a 357 245
a 357 318
a 357 7
a 357 148
a 357 10
a 357 107
a 357 16
a 357 17
a 357 20
a 357 21
a 357 165
a 357 166
a 357 359
a 357 24
a 357 34
a 357 394
a 357 41
a 357 113
a 357 42
a 357 43
a 357 44
a 357 46
a 357 114
a 357 47
a 357 48
a 357 49
a 357 50
a 357 54
a 357 55
a 357 181
a 357 56
a 357 57
a 357 58
a 357 59
a 357 61
a 357 62
a 357 63
a 357 185
a 357 115
a 357 436
a 358 108
a 358 7
a 358 148
a 358 10
a 358 104
a 358 107
a 358 16
a 358 17
a 358 20
a 358 21
a 358 165
a 358 359
a 358 253
a 358 24
a 358 460
a 358 34
a 358 394
a 358 41
a 358 113
a 358 42
a 358 43
a 358 44
a 358 46
a 358 114
a 358 47
a 358 49
a 358 50
a 358 55
a 358 181
a 358 56
a 358 57
a 358 58
a 358 59
a 358 60
a 358 61
a 358 62
a 358 63
a 358 312
a 358 436
a 353 7
a 353 148
a 353 84
a 353 10
a 353 102
a 353 151
a 353 397
a 353 390
a 353 219
a 353 220
a 353 12
a 353 141
a 353 105
a 353 232
a 353 154
a 353 106
a 353 107
a 353 14
a 353 133
a 353 134
a 353 16
a 353 17
a 353 96
a 353 455
a 353 236
a 353 237
a 353 240
a 353 21
a 353 485
a 353 127
a 353 128
a 353 164
a 353 251
a 353 253
a 353 255
a 353 279
a 353 34
a 353 111
a 353 394
a 353 429
a 353 112
a 353 432
a 353 41
a 353 113
a 353 42
a 353 43
a 353 44
a 353 46
a 353 114
a 353 47
a 353 48
a 353 49
a 353 115
a 353 50
a 353 51
a 353 52
a 353 53
a 353 54
a 353 55
a 353 181
a 353 56
a 353 57
a 353 58
a 353 59
a 353 60
a 353 99
a 353 183
a 353 61
a 353 62
a 353 63
a 419 128
a 419 255
a 419 26
a 419 263
a 419 265
a 419 407
a 419 110
a 419 366
a 419 167
a 419 276
a 419 168
a 419 277
a 419 409
a 419 327
a 419 328
a 419 279
a 419 281
a 419 283
a 419 33
a 419 34
a 419 284
a 419 416
a 419 418
a 419 170
a 419 393
a 419 465
a 419 285
a 419 286
a 419 287
a 419 288
a 419 289
a 419 290
a 419 318
a 419 148
a 419 84
a 419 10
a 419 102
a 419 220
a 419 104
a 419 228
a 419 13
a 419 141
a 419 232
a 419 106
a 419 107
a 419 14
a 419 16
a 419 17
a 419 20
a 419 236
a 419 240
a 419 21
a 419 22
a 419 164
a 419 247
a 419 253
a 419 322
a 419 256
a 419 460
a 419 362
a 419 261
a 419 264
a 419 406
a 419 266
a 419 363
a 419 461
a 419 27
a 419 271
a 419 28
a 419 274
a 419 325
a 419 326
a 419 280
a 419 282
a 419 415
a 419 32
a 419 331
a 419 35
a 419 291
a 419 292
a 419 111
a 419 294
a 419 296
a 419 297
a 419 37
a 419 38
a 419 172
a 419 301
a 419 307
a 419 394
a 419 112
a 419 135
a 419 41
a 419 113
a 419 42
a 419 44
a 419 46
a 419 114
a 419 47
a 419 48
a 419 49
a 419 115
a 419 50
a 419 51
a 419 52
a 419 53
a 419 54
a 419 55
a 419 181
a 419 56
a 419 57
a 419 58
a 419 59
a 419 60
a 419 99
a 419 183
a 419 61
a 419 62
a 419 63
a 419 185
a 419 420
a 419 427
a 419 309
a 456 148
a 456 64
a 456 10
a 456 151
a 456 397
a 456 390
a 456 441
a 456 139
a 456 103
a 456 219
a 456 391
a 456 104
a 456 222
a 456 142
a 456 154
a 456 107
a 456 16
a 456 17
a 456 319
a 456 20
a 456 236
a 456 237
a 456 98
a 456 320
a 456 21
a 456 127
a 456 128
a 456 392
a 456 253
a 456 255
a 456 25
a 456 28
a 456 34
a 456 41
a 456 113
a 456 42
a 456 43
a 456 46
a 456 114
a 456 47
a 456 48
a 456 49
a 456 50
a 456 51
a 456 53
a 456 54
a 456 55
a 456 181
a 456 56
a 456 57
a 456 58
a 456 59
a 456 60
a 456 61
a 456 62
a 456 63
a 456 185
a 456 243
a 456 457
a 456 99
a 243 6
a 243 318
a 243 148
a 243 84
a 243 10
a 243 102
a 243 151
a 243 397
a 243 218
a 243 390
a 243 378
a 243 11
a 243 139
a 243 103
a 243 219
a 243 220
a 243 386
a 243 222
a 243 12
a 243 142
a 243 105
a 243 232
a 243 154
a 243 155
a 243 106
a 243 157
a 243 158
a 243 107
a 243 14
a 243 133
a 243 134
a 243 16
a 243 159
a 243 160
a 243 17
a 243 96
a 243 236
a 243 98
a 243 240
a 243 21
a 243 22
a 243 127
a 243 128
a 243 392
a 243 456
a 243 457
a 243 163
a 243 253
a 243 25
a 243 460
a 243 263
a 243 110
a 243 28
a 243 326
a 243 280
a 243 32
a 243 34
a 243 111
a 243 38
a 243 112
a 243 135
a 243 178
a 243 179
a 243 136
a 243 432
a 243 40
a 243 41
a 243 113
a 243 42
a 243 43
a 243 44
a 243 46
a 243 114
a 243 47
a 243 48
a 243 49
a 243 115
a 243 50
a 243 51
a 243 52
a 243 53
a 243 54
a 243 55
a 243 181
a 243 56
a 243 57
a 243 58
a 243 59
a 243 60
a 243 99
a 243 183
a 243 61
a 243 62
a 243 184
a 243 63
a 243 185
a 457 243
a 457 148
a 457 10
a 457 151
a 457 397
a 457 218
a 457 390
a 457 378
a 457 103
a 457 444
a 457 482
a 457 219
a 457 220
a 457 12
a 457 154
a 457 107
a 457 16
a 457 17
a 457 96
a 457 455
a 457 236
a 457 237
a 457 98
a 457 21
a 457 127
a 457 128
a 457 392
a 457 456
a 457 263
a 457 110
a 457 28
a 457 280
a 457 34
a 457 373
a 457 432
a 457 113
a 457 42
a 457 44
a 457 46
a 457 114
a 457 47
a 457 49
a 457 50
a 457 51
a 457 52
a 457 53
a 457 54
a 457 55
a 457 181
a 457 56
a 457 57
a 457 58
a 457 59
a 457 60
a 457 61
a 457 62
a 457 63
a 458 148
a 458 64
a 458 10
a 458 151
a 458 397
a 458 390
a 458 378
a 458 219
a 458 220
a 458 446
a 458 107
a 458 16
a 458 17
a 458 236
a 458 21
a 458 392
a 458 28
a 458 34
a 458 469
a 458 432
a 458 42
a 458 46
a 458 114
a 458 47
a 458 49
a 458 50
a 458 53
a 458 54
a 458 181
a 458 56
a 458 57
a 458 58
a 458 59
a 458 60
a 458 61
a 458 62
a 458 63
a 458 185
a 433 249
a 433 318
a 433 148
a 433 84
a 433 10
a 433 102
a 433 151
a 433 349
a 433 139
a 433 104
a 433 225
a 433 381
a 433 13
a 433 142
a 433 105
a 433 106
a 433 16
a 433 240
a 433 21
a 433 22
a 433 128
a 433 164
a 433 253
a 433 255
a 433 25
a 433 460
a 433 260
a 433 263
a 433 264
a 433 27
a 433 273
a 433 275
a 433 34
a 433 111
a 433 394
a 433 112
a 433 41
a 433 113
a 433 42
a 433 43
a 433 44
a 433 46
a 433 114
a 433 47
a 433 48
a 433 49
a 433 115
a 433 50
a 433 51
a 433 52
a 433 53
a 433 54
a 433 55
a 433 181
a 433 56
a 433 57
a 433 58
a 433 59
a 433 60
a 433 99
a 433 61
a 433 62
a 433 63
a 479 255
a 479 25
a 479 148
a 479 104
a 479 228
a 479 107
a 479 133
a 479 17
a 479 21
a 479 127
a 479 251
a 479 256
a 479 460
a 479 261
a 479 265
a 479 271
a 479 366
a 479 30
a 479 167
a 479 369
a 479 281
a 479 282
a 479 330
a 479 283
a 479 34
a 479 287
a 479 290
a 479 41
a 479 113
a 479 42
a 479 43
a 479 44
a 479 46
a 479 114
a 479 47
a 479 48
a 479 49
a 479 50
a 479 53
a 479 54
a 479 55
a 479 56
a 479 57
a 479 58
a 479 59
a 479 183
a 479 26
a 479 267
a 479 268
a 479 27
a 479 269
a 479 408
a 479 462
a 479 270
a 479 110
a 369 255
a 369 479
a 369 256
a 369 26
a 369 271
a 369 30
a 369 167
a 369 368
a 369 318
a 369 7
a 369 148
a 369 84
a 369 10
a 369 102
a 369 104
a 369 13
a 369 16
a 369 20
a 369 21
a 369 127
a 369 251
a 369 322
a 369 361
a 369 460
a 369 362
a 369 261
a 369 263
a 369 406
a 369 265
a 369 266
a 369 323
a 369 363
a 369 27
a 369 110
a 369 28
a 369 168
a 369 278
a 369 279
a 369 329
a 369 280
a 369 281
a 369 282
a 369 371
a 369 283
a 369 32
a 369 34
a 369 287
a 369 288
a 369 289
a 369 290
a 369 331
a 369 467
a 369 292
a 369 111
a 369 394
a 369 41
a 369 113
a 369 42
a 369 44
a 369 46
a 369 114
a 369 47
a 369 48
a 369 49
a 369 115
a 369 50
a 369 51
a 369 52
a 369 53
a 369 54
a 369 55
a 369 181
a 369 56
a 369 57
a 369 58
a 369 59
a 369 60
a 369 99
a 369 61
a 369 62
a 369 63
a 369 185
a 418 255
a 418 384
a 418 416
a 418 148
a 418 84
a 418 10
a 418 102
a 418 141
a 418 107
a 418 16
a 418 240
a 418 21
a 418 127
a 418 128
a 418 247
a 418 253
a 418 25
a 418 256
a 418 26
a 418 460
a 418 263
a 418 264
a 418 265
a 418 266
a 418 363
a 418 271
a 418 110
a 418 28
a 418 274
a 418 366
a 418 167
a 418 409
a 418 279
a 418 282
a 418 371
a 418 34
a 418 287
a 418 288
a 418 289
a 418 419
a 418 292
a 418 111
a 418 296
a 418 297
a 418 307
a 418 394
a 418 135
a 418 41
a 418 113
a 418 42
a 418 44
a 418 46
a 418 114
a 418 47
a 418 49
a 418 115
a 418 50
a 418 51
a 418 52
a 418 53
a 418 54
a 418 55
a 418 181
a 418 56
a 418 57
a 418 58
a 418 59
a 418 60
a 418 99
a 418 61
a 418 62
a 418 63
a 418 185
a 418 294
a 298 256
a 298 26
a 298 272
a 298 168
a 298 31
a 298 169
a 298 277
a 298 325
a 298 327
a 298 279
a 298 6
a 298 148
a 298 439
a 298 138
a 298 10
a 298 151
a 298 377
a 298 378
a 298 219
a 298 220
a 298 386
a 298 446
a 298 391
a 298 104
a 298 222
a 298 223
a 298 225
a 298 12
a 298 229
a 298 230
a 298 398
a 298 231
a 298 400
a 298 233
a 298 106
a 298 107
a 298 16
a 298 17
a 298 236
a 298 240
a 298 21
a 298 22
a 298 127
a 298 128
a 298 23
a 298 164
a 298 251
a 298 252
a 298 254
a 298 255
a 298 460
a 298 260
a 298 263
a 298 264
a 298 265
a 298 266
a 298 323
a 298 363
a 298 364
a 298 365
a 298 407
a 298 267
a 298 268
a 298 27
a 298 269
a 298 271
a 298 110
a 298 273
a 298 274
a 298 366
a 298 464
a 298 275
a 298 167
a 298 328
a 298 278
a 298 368
a 298 281
a 298 282
a 298 283
a 298 32
a 298 33
a 298 34
a 298 285
a 298 287
a 298 288
a 298 289
a 298 290
a 298 331
a 298 373
a 298 420
a 298 423
a 298 35
a 298 291
a 298 292
a 298 111
a 298 36
a 298 37
a 298 426
a 298 299
a 298 38
a 298 472
a 298 173
a 298 394
a 298 429
a 298 112
a 298 376
a 298 309
a 298 41
a 298 113
a 298 42
a 298 43
a 298 44
a 298 46
a 298 114
a 298 47
a 298 48
a 298 49
a 298 115
a 298 50
a 298 51
a 298 52
a 298 53
a 298 54
a 298 55
a 298 181
a 298 56
a 298 57
a 298 58
a 298 59
a 298 60
a 298 99
a 298 183
a 298 61
a 298 62
a 298 63
a 298 185
a 276 263
a 276 267
a 276 27
a 276 408
a 276 271
a 276 275
a 276 167
a 276 119
a 276 6
a 276 148
a 276 346
a 276 149
a 276 64
a 276 65
a 276 66
a 276 84
a 276 138
a 276 10
a 276 102
a 276 151
a 276 220
a 276 13
a 276 400
a 276 141
a 276 105
a 276 232
a 276 154
a 276 106
a 276 107
a 276 14
a 276 133
a 276 134
a 276 16
a 276 159
a 276 17
a 276 319
a 276 235
a 276 236
a 276 240
a 276 21
a 276 22
a 276 127
a 276 128
a 276 23
a 276 164
a 276 251
a 276 253
a 276 322
a 276 255
a 276 256
a 276 26
a 276 460
a 276 260
a 276 261
a 276 264
a 276 406
a 276 265
a 276 266
a 276 323
a 276 363
a 276 461
a 276 269
a 276 110
a 276 29
a 276 273
a 276 274
a 276 366
a 276 30
a 276 168
a 276 277
a 276 278
a 276 368
a 276 279
a 276 329
a 276 411
a 276 281
a 276 282
a 276 330
a 276 283
a 276 415
a 276 32
a 276 33
a 276 34
a 276 287
a 276 288
a 276 289
a 276 290
a 276 331
a 276 467
a 276 419
a 276 111
a 276 294
a 276 296
a 276 297
a 276 425
a 276 37
a 276 171
a 276 300
a 276 172
a 276 301
a 276 304
a 276 306
a 276 307
a 276 394
a 276 429
a 276 112
a 276 175
a 276 135
a 276 177
a 276 179
a 276 136
a 276 41
a 276 113
a 276 42
a 276 43
a 276 44
a 276 46
a 276 114
a 276 47
a 276 48
a 276 49
a 276 115
a 276 50
a 276 51
a 276 52
a 276 53
a 276 54
a 276 55
a 276 181
a 276 56
a 276 57
a 276 58
a 276 59
a 276 60
a 276 99
a 276 183
a 276 61
a 276 62
a 276 184
a 276 63
a 276 185
a 276 409
a 276 280
a 276 285
a 276 38
a 276 302
a 276 303
a 276 472
a 293 263
a 293 406
a 293 110
a 293 167
a 293 280
a 293 284
a 293 286
a 293 288
a 293 290
a 293 35
a 293 292
a 293 119
a 293 147
a 293 6
a 293 318
a 293 148
a 293 149
a 293 64
a 293 65
a 293 66
a 293 84
a 293 138
a 293 10
a 293 102
a 293 150
a 293 218
a 293 220
a 293 104
a 293 228
a 293 12
a 293 13
a 293 105
a 293 232
a 293 154
a 293 106
a 293 157
a 293 158
a 293 107
a 293 14
a 293 15
a 293 133
a 293 134
a 293 16
a 293 159
a 293 160
a 293 17
a 293 96
a 293 20
a 293 236
a 293 237
a 293 240
a 293 21
a 293 22
a 293 127
a 293 128
a 293 161
a 293 162
a 293 164
a 293 165
a 293 251
a 293 255
a 293 25
a 293 460
a 293 362
a 293 257
a 293 258
a 293 260
a 293 261
a 293 264
a 293 265
a 293 266
a 293 363
a 293 271
a 293 28
a 293 29
a 293 273
a 293 274
a 293 366
a 293 30
a 293 278
a 293 368
a 293 279
a 293 329
a 293 411
a 293 282
a 293 283
a 293 32
a 293 34
a 293 467
a 293 111
a 293 294
a 293 295
a 293 296
a 293 297
a 293 425
a 293 171
a 293 38
a 293 394
a 293 174
a 293 429
a 293 112
a 293 175
a 293 176
a 293 135
a 293 177
a 293 178
a 293 179
a 293 136
a 293 41
a 293 113
a 293 42
a 293 43
a 293 44
a 293 180
a 293 46
a 293 114
a 293 47
a 293 48
a 293 49
a 293 115
a 293 50
a 293 51
a 293 52
a 293 53
a 293 54
a 293 55
a 293 181
a 293 56
a 293 57
a 293 58
a 293 59
a 293 60
a 293 311
a 293 99
a 293 183
a 293 61
a 293 396
a 293 62
a 293 184
a 293 63
a 293 185
a 293 37
a 293 302
a 293 307
a 293 45
a 293 436
a 466 271
a 466 273
a 466 410
a 466 281
a 466 32
a 466 148
a 466 10
a 466 102
a 466 104
a 466 107
a 466 16
a 466 17
a 466 240
a 466 21
a 466 128
a 466 23
a 466 251
a 466 253
a 466 255
a 466 25
a 466 256
a 466 26
a 466 460
a 466 362
a 466 257
a 466 260
a 466 263
a 466 264
a 466 406
a 466 265
a 466 266
a 466 323
a 466 363
a 466 27
a 466 366
a 466 275
a 466 168
a 466 31
a 466 409
a 466 279
a 466 280
a 466 282
a 466 283
a 466 34
a 466 289
a 466 290
a 466 38
a 466 307
a 466 394
a 466 174
a 466 41
a 466 113
a 466 42
a 466 44
a 466 46
a 466 114
a 466 47
a 466 48
a 466 49
a 466 115
a 466 50
a 466 51
a 466 52
a 466 53
a 466 54
a 466 55
a 466 181
a 466 56
a 466 57
a 466 58
a 466 59
a 466 60
a 466 99
a 466 61
a 466 62
a 466 63
a 466 185
a 416 284
a 416 119
a 416 318
a 416 148
a 416 64
a 416 65
a 416 66
a 416 84
a 416 138
a 416 10
a 416 102
a 416 448
a 416 141
a 416 105
a 416 232
a 416 106
a 416 107
a 416 14
a 416 16
a 416 17
a 416 352
a 416 20
a 416 236
a 416 21
a 416 22
a 416 127
a 416 128
a 416 164
a 416 247
a 416 255
a 416 25
a 416 256
a 416 26
a 416 460
a 416 261
a 416 263
a 416 264
a 416 406
a 416 265
a 416 266
a 416 363
a 416 461
a 416 269
a 416 271
a 416 110
a 416 274
a 416 366
a 416 30
a 416 167
a 416 279
a 416 329
a 416 282
a 416 283
a 416 34
a 416 417
a 416 418
a 416 170
a 416 393
a 416 285
a 416 286
a 416 287
a 416 288
a 416 289
a 416 290
a 416 419
a 416 292
a 416 111
a 416 294
a 416 295
a 416 296
a 416 297
a 416 394
a 416 174
a 416 175
a 416 375
a 416 135
a 416 177
a 416 136
a 416 309
a 416 41
a 416 113
a 416 42
a 416 44
a 416 46
a 416 114
a 416 47
a 416 48
a 416 49
a 416 115
a 416 50
a 416 51
a 416 52
a 416 53
a 416 54
a 416 55
a 416 181
a 416 56
a 416 57
a 416 58
a 416 59
a 416 60
a 416 311
a 416 99
a 416 183
a 416 61
a 416 62
a 416 63
a 416 185
a 421 465
a 421 373
a 421 318
a 421 148
a 421 84
a 421 10
a 421 102
a 421 220
a 421 104
a 421 228
a 421 13
a 421 141
a 421 232
a 421 106
a 421 107
a 421 16
a 421 17
a 421 96
a 421 20
a 421 236
a 421 240
a 421 21
a 421 242
a 421 127
a 421 128
a 421 23
a 421 164
a 421 251
a 421 252
a 421 253
a 421 254
a 421 255
a 421 256
a 421 26
a 421 460
a 421 362
a 421 263
a 421 264
a 421 406
a 421 265
a 421 266
a 421 323
a 421 363
a 421 407
a 421 271
a 421 272
a 421 110
a 421 273
a 421 274
a 421 366
a 421 30
a 421 275
a 421 167
a 421 168
a 421 368
a 421 279
a 421 329
a 421 411
a 421 282
a 421 330
a 421 283
a 421 32
a 421 33
a 421 34
a 421 393
a 421 285
a 421 288
a 421 289
a 421 290
a 421 291
a 421 292
a 421 111
a 421 37
a 421 171
a 421 38
a 421 427
a 421 394
a 421 174
a 421 429
a 421 112
a 421 39
a 421 309
a 421 41
a 421 113
a 421 42
a 421 43
a 421 44
a 421 46
a 421 114
a 421 47
a 421 48
a 421 49
a 421 115
a 421 50
a 421 51
a 421 52
a 421 53
a 421 54
a 421 55
a 421 181
a 421 56
a 421 57
a 421 58
a 421 59
a 421 60
a 421 99
a 421 183
a 421 61
a 421 62
a 421 63
a 421 185
a 421 423
a 421 305
a 472 298
a 472 303
a 472 148
a 472 10
a 472 151
a 472 377
a 472 378
a 472 219
a 472 220
a 472 386
a 472 153
a 472 446
a 472 104
a 472 222
a 472 223
a 472 224
a 472 225
a 472 381
a 472 12
a 472 229
a 472 230
a 472 398
a 472 231
a 472 400
a 472 232
a 472 233
a 472 106
a 472 107
a 472 16
a 472 17
a 472 236
a 472 240
a 472 21
a 472 22
a 472 127
a 472 128
a 472 164
a 472 254
a 472 255
a 472 256
a 472 26
a 472 260
a 472 263
a 472 264
a 472 265
a 472 266
a 472 364
a 472 365
a 472 407
a 472 267
a 472 268
a 472 27
a 472 269
a 472 271
a 472 272
a 472 110
a 472 273
a 472 274
a 472 366
a 472 30
a 472 275
a 472 167
a 472 276
a 472 168
a 472 278
a 472 279
a 472 282
a 472 283
a 472 32
a 472 34
a 472 285
a 472 289
a 472 373
a 472 420
a 472 423
a 472 35
a 472 291
a 472 292
a 472 111
a 472 294
a 472 37
a 472 426
a 472 299
a 472 38
a 472 173
a 472 394
a 472 429
a 472 112
a 472 376
a 472 309
a 472 41
a 472 113
a 472 42
a 472 43
a 472 44
a 472 46
a 472 114
a 472 47
a 472 48
a 472 49
a 472 115
a 472 50
a 472 51
a 472 52
a 472 53
a 472 54
a 472 55
a 472 181
a 472 56
a 472 57
a 472 58
a 472 59
a 472 60
a 472 183
a 472 61
a 472 62
a 472 63
a 472 185
a 472 305
a 305 119
a 305 6
a 305 148
a 305 64
a 305 65
a 305 66
a 305 84
a 305 138
a 305 10
a 305 102
a 305 377
a 305 441
a 305 378
a 305 219
a 305 220
a 305 386
a 305 221
a 305 104
a 305 222
a 305 223
a 305 224
a 305 225
a 305 381
a 305 12
a 305 229
a 305 230
a 305 398
a 305 231
a 305 401
a 305 402
a 305 450
a 305 232
a 305 233
a 305 154
a 305 106
a 305 157
a 305 14
a 305 133
a 305 134
a 305 16
a 305 159
a 305 17
a 305 96
a 305 20
a 305 108
a 305 98
a 305 240
a 305 21
a 305 242
a 305 22
a 305 127
a 305 128
a 305 164
a 305 356
a 305 359
a 305 251
a 305 252
a 305 253
a 305 254
a 305 255
a 305 25
a 305 256
a 305 26
a 305 362
a 305 258
a 305 260
a 305 263
a 305 264
a 305 406
a 305 265
a 305 266
a 305 364
a 305 365
a 305 407
a 305 268
a 305 269
a 305 271
a 305 28
a 305 29
a 305 273
a 305 274
a 305 366
a 305 275
a 305 167
a 305 328
a 305 368
a 305 279
a 305 329
a 305 411
a 305 413
a 305 281
a 305 32
a 305 34
a 305 285
a 305 286
a 305 373
a 305 420
a 305 421
a 305 422
a 305 423
a 305 35
a 305 291
a 305 292
a 305 111
a 305 171
a 305 299
a 305 38
a 305 472
a 305 173
a 305 427
a 305 394
a 305 174
a 305 429
a 305 112
a 305 175
a 305 135
a 305 177
a 305 179
a 305 136
a 305 39
a 305 376
a 305 309
a 305 41
a 305 113
a 305 42
a 305 43
a 305 44
a 305 46
a 305 114
a 305 47
a 305 48
a 305 49
a 305 115
a 305 50
a 305 51
a 305 52
a 305 53
a 305 54
a 305 55
a 305 181
a 305 56
a 305 57
a 305 58
a 305 59
a 305 60
a 305 99
a 305 61
a 305 62
a 305 184
a 305 63
a 305 185
a 374 7
a 374 148
a 374 64
a 374 84
a 374 10
a 374 102
a 374 151
a 374 397
a 374 477
a 374 378
a 374 139
a 374 104
a 374 225
a 374 141
a 374 142
a 374 154
a 374 155
a 374 106
a 374 107
a 374 16
a 374 236
a 374 108
a 374 240
a 374 21
a 374 22
a 374 127
a 374 128
a 374 164
a 374 359
a 374 251
a 374 252
a 374 253
a 374 255
a 374 256
a 374 261
a 374 264
a 374 406
a 374 129
a 374 271
a 374 274
a 374 279
a 374 34
a 374 111
a 374 296
a 374 297
a 374 470
a 374 425
a 374 171
a 374 38
a 374 144
a 374 394
a 374 112
a 374 309
a 374 41
a 374 113
a 374 42
a 374 43
a 374 44
a 374 46
a 374 114
a 374 47
a 374 49
a 374 115
a 374 50
a 374 51
a 374 52
a 374 53
a 374 54
a 374 55
a 374 181
a 374 56
a 374 57
a 374 58
a 374 59
a 374 60
a 374 99
a 374 183
a 374 61
a 374 62
a 374 184
a 374 63
a 374 182
a 374 312
a 374 116
a 473 308
a 473 148
a 473 10
a 473 151
a 473 218
a 473 349
a 473 378
a 473 220
a 473 153
a 473 391
a 473 104
a 473 222
a 473 379
a 473 225
a 473 12
a 473 13
a 473 141
a 473 142
a 473 106
a 473 107
a 473 16
a 473 96
a 473 236
a 473 237
a 473 240
a 473 21
a 473 22
a 473 127
a 473 128
a 473 392
a 473 255
a 473 264
a 473 406
a 473 271
a 473 110
a 473 28
a 473 273
a 473 30
a 473 167
a 473 168
a 473 280
a 473 34
a 473 287
a 473 289
a 473 35
a 473 171
a 473 471
a 473 173
a 473 394
a 473 135
a 473 40
a 473 41
a 473 113
a 473 42
a 473 44
a 473 46
a 473 114
a 473 47
a 473 49
a 473 115
a 473 50
a 473 51
a 473 52
a 473 53
a 473 54
a 473 55
a 473 181
a 473 56
a 473 57
a 473 58
a 473 59
a 473 60
a 473 61
a 473 396
a 473 62
a 473 63
a 473 185
a 436 41
a 436 43
a 436 115
a 436 50
a 436 51
a 436 52
a 436 53
a 436 434
a 436 310
a 436 54
a 436 56
a 436 59
a 436 311
a 436 119
a 436 340
a 436 342
a 436 345
a 436 64
a 436 65
a 436 66
a 436 84
a 436 138
a 436 10
a 436 102
a 436 11
a 436 350
a 436 141
a 436 105
a 436 232
a 436 154
a 436 155
a 436 106
a 436 156
a 436 157
a 436 158
a 436 107
a 436 14
a 436 15
a 436 403
a 436 133
a 436 134
a 436 16
a 436 159
a 436 160
a 436 17
a 436 96
a 436 235
a 436 20
a 436 108
a 436 98
a 436 240
a 436 21
a 436 22
a 436 127
a 436 128
a 436 164
a 436 357
a 436 358
a 436 360
a 436 256
a 436 26
a 436 265
a 436 266
a 436 27
a 436 269
a 436 110
a 436 463
a 436 273
a 436 30
a 436 168
a 436 277
a 436 279
a 436 281
a 436 282
a 436 372
a 436 287
a 436 373
a 436 422
a 436 35
a 436 111
a 436 293
a 436 294
a 436 297
a 436 38
a 436 302
a 436 304
a 436 173
a 436 112
a 436 175
a 436 176
a 436 135
a 436 177
a 436 178
a 436 179
a 436 136
a 436 39
a 436 113
a 436 42
a 436 44
a 436 45
a 436 46
a 436 114
a 436 47
a 436 48
a 436 49
a 436 55
a 436 181
a 436 58
a 436 60
a 436 99
a 436 183
a 436 62
a 436 184
a 436 63
a 312 113
a 312 114
a 312 48
a 312 5
a 312 119
a 312 120
a 312 147
a 312 137
a 312 6
a 312 318
a 312 148
a 312 149
a 312 64
a 312 65
a 312 66
a 312 122
a 312 123
a 312 67
a 312 124
a 312 68
a 312 125
a 312 69
a 312 70
a 312 71
a 312 72
a 312 383
a 312 73
a 312 74
a 312 75
a 312 76
a 312 79
a 312 80
a 312 81
a 312 82
a 312 83
a 312 84
a 312 85
a 312 138
a 312 10
a 312 126
a 312 88
a 312 92
a 312 93
a 312 94
a 312 95
a 312 102
a 312 150
a 312 139
a 312 219
a 312 220
a 312 386
a 312 350
a 312 152
a 312 105
a 312 232
a 312 154
a 312 106
a 312 157
a 312 158
a 312 107
a 312 234
a 312 14
a 312 15
a 312 133
a 312 134
a 312 16
a 312 159
a 312 160
a 312 17
a 312 18
a 312 19
a 312 96
a 312 20
a 312 97
a 312 108
a 312 98
a 312 240
a 312 21
a 312 22
a 312 127
a 312 128
a 312 161
a 312 162
a 312 163
a 312 164
a 312 109
a 312 358
a 312 165
a 312 25
a 312 110
a 312 463
a 312 30
a 312 32
a 312 170
a 312 285
a 312 422
a 312 35
a 312 111
a 312 36
a 312 37
a 312 38
a 312 173
a 312 307
a 312 144
a 312 394
a 312 374
a 312 174
a 312 428
a 312 112
a 312 175
a 312 176
a 312 135
a 312 177
a 312 178
a 312 179
a 312 136
a 312 474
a 312 39
a 312 40
a 312 41
a 312 42
a 312 43
a 312 44
a 312 45
a 312 180
a 312 46
a 312 47
a 312 49
a 312 115
a 312 50
a 312 51
a 312 52
a 312 53
a 312 54
a 312 55
a 312 181
a 312 56
a 312 58
a 312 59
a 312 60
a 312 311
a 312 99
a 312 183
a 312 61
a 312 62
a 312 184
a 312 63
a 486 46
a 486 54
a 486 56
a 486 57
a 486 58
a 486 311
a 486 99
a 434 52
a 434 53
a 434 119
a 434 147
a 434 137
a 434 148
a 434 149
a 434 64
a 434 65
a 434 66
a 434 84
a 434 138
a 434 10
a 434 102
a 434 150
a 434 12
a 434 141
a 434 105
a 434 232
a 434 154
a 434 106
a 434 157
a 434 158
a 434 14
a 434 15
a 434 133
a 434 134
a 434 16
a 434 159
a 434 160
a 434 96
a 434 20
a 434 21
a 434 22
a 434 127
a 434 128
a 434 23
a 434 161
a 434 162
a 434 163
a 434 164
a 434 165
a 434 253
a 434 25
a 434 30
a 434 167
a 434 170
a 434 422
a 434 35
a 434 111
a 434 36
a 434 37
a 434 38
a 434 173
a 434 174
a 434 112
a 434 175
a 434 176
a 434 135
a 434 177
a 434 178
a 434 179
a 434 136
a 434 40
a 434 41
a 434 113
a 434 42
a 434 43
a 434 44
a 434 45
a 434 180
a 434 46
a 434 114
a 434 47
a 434 48
a 434 49
a 434 115
a 434 50
a 434 51
a 434 54
a 434 55
a 434 181
a 434 56
a 434 57
a 434 58
a 434 59
a 434 60
a 434 99
a 434 183
a 434 61
a 434 62
a 434 436
a 434 184
a 434 63
a 310 131
a 310 6
a 310 340
a 310 341
a 310 18
a 310 19
a 310 128
a 310 23
a 310 365
a 310 169
a 310 173
a 310 41
a 310 42
a 310 43
a 310 44
a 310 49
a 310 50
a 310 51
a 310 53
a 310 54
a 310 56
a 310 58
a 310 436
a 435 119
a 435 148
a 435 64
a 435 84
a 435 10
a 435 102
a 435 219
a 435 220
a 435 141
a 435 105
a 435 232
a 435 154
a 435 106
a 435 14
a 435 133
a 435 134
a 435 16
a 435 159
a 435 20
a 435 98
a 435 143
a 435 21
a 435 22
a 435 127
a 435 128
a 435 23
a 435 463
a 435 32
a 435 422
a 435 35
a 435 111
a 435 36
a 435 37
a 435 38
a 435 112
a 435 135
a 435 179
a 435 136
a 435 474
a 435 39
a 435 40
a 435 41
a 435 113
a 435 42
a 435 43
a 435 44
a 435 45
a 435 46
a 435 114
a 435 47
a 435 48
a 435 49
a 435 115
a 435 50
a 435 51
a 435 52
a 435 53
a 435 54
a 435 55
a 435 181
a 435 56
a 435 57
a 435 58
a 435 59
a 435 60
a 435 99
a 435 61
a 435 62
a 435 184
a 435 63
a 385 5
a 385 119
a 385 120
a 385 148
a 385 64
a 385 65
a 385 66
a 385 122
a 385 123
a 385 67
a 385 124
a 385 68
a 385 125
a 385 69
a 385 70
a 385 71
a 385 72
a 385 383
a 385 73
a 385 74
a 385 75
a 385 76
a 385 80
a 385 81
a 385 82
a 385 83
a 385 84
a 385 10
a 385 88
a 385 93
a 385 219
a 385 232
a 385 154
a 385 106
a 385 157
a 385 158
a 385 14
a 385 15
a 385 133
a 385 134
a 385 16
a 385 159
a 385 160
a 385 21
a 385 22
a 385 32
a 385 35
a 385 112
a 385 308
a 385 178
a 385 179
a 385 136
a 385 39
a 385 40
a 385 41
a 385 42
a 385 46
a 385 114
a 385 47
a 385 48
a 385 49
a 385 115
a 385 50
a 385 53
a 385 54
a 385 181
a 385 56
a 385 59
a 385 60
a 385 61
a 385 63
a 313 5
a 313 119
a 313 120
a 313 137
a 313 6
a 313 148
a 313 64
a 313 65
a 313 66
a 313 122
a 313 123
a 313 67
a 313 124
a 313 68
a 313 125
a 313 69
a 313 70
a 313 71
a 313 72
a 313 383
a 313 73
a 313 74
a 313 75
a 313 76
a 313 79
a 313 80
a 313 81
a 313 82
a 313 83
a 313 84
a 313 85
a 313 10
a 313 126
a 313 88
a 313 92
a 313 93
a 313 94
a 313 95
a 313 350
a 313 232
a 313 106
a 313 107
a 313 14
a 313 134
a 313 16
a 313 20
a 313 108
a 313 21
a 313 128
a 313 35
a 313 112
a 313 309
a 313 40
a 313 41
a 313 42
a 313 43
a 313 45
a 313 46
a 313 114
a 313 47
a 313 48
a 313 49
a 313 50
a 313 52
a 313 54
a 313 181
a 313 56
a 313 57
a 313 59
a 313 60
a 313 61
a 313 62
a 313 63
a 476 148
a 476 81
a 476 82
a 476 10
a 476 232
a 476 154
a 476 106
a 476 157
a 476 158
a 476 14
a 476 15
a 476 403
a 476 133
a 476 134
a 476 16
a 476 159
a 476 160
a 476 21
a 476 22
a 476 35
a 476 112
a 476 177
a 476 178
a 476 179
a 476 136
a 476 309
a 476 40
a 476 113
a 476 42
a 476 43
a 476 44
a 476 46
a 476 114
a 476 47
a 476 48
a 476 49
a 476 50
a 476 52
a 476 53
a 476 54
a 476 55
a 476 181
a 476 56
a 476 57
a 476 58
a 476 59
a 476 60
a 476 311
a 476 61
a 476 62
a 476 63
