p sp 1258 15026
a 1 2
a 1 3
a 1 4
a 1 5
a 1 6
a 1 7
a 1 8
a 1 9
a 1 10
a 1 11
a 1 12
a 1 13
a 1 14
a 1 15
a 1 16
a 1 17
a 1 18
a 1 19
a 1 20
a 1 21
a 1 22
a 1 23
a 1 24
a 1 25
a 1 26
a 1 27
a 1 28
a 1 29
a 1 30
a 1 31
a 1 32
a 1 33
a 1 34
a 1 35
a 1 36
a 1 37
a 1 38
a 1 39
a 2 1
a 2 40
a 2 3
a 2 37
a 2 38
a 2 39
a 3 1
a 3 2
a 3 41
a 3 4
a 3 37
a 3 38
a 3 39
a 4 1
a 4 3
a 4 42
a 4 43
a 4 44
a 4 45
a 4 46
a 4 47
a 4 48
a 4 49
a 4 50
a 4 51
a 4 52
a 4 53
a 5 1
a 5 54
a 5 55
a 5 56
a 5 44
a 5 45
a 5 46
a 5 47
a 5 48
a 5 49
a 5 50
a 5 51
a 5 52
a 5 53
a 6 1
a 6 57
a 6 58
a 6 59
a 6 44
a 6 45
a 6 46
a 6 47
a 6 48
a 6 49
a 6 50
a 6 51
a 6 52
a 6 53
a 7 1
a 7 60
a 7 61
a 7 62
a 7 44
a 7 45
a 7 46
a 7 47
a 7 48
a 7 49
a 7 50
a 7 51
a 7 52
a 7 53
a 8 1
a 8 63
a 8 64
a 8 65
a 8 44
a 8 45
a 8 46
a 8 47
a 8 48
a 8 49
a 8 50
a 8 51
a 8 52
a 8 53
a 9 1
a 9 66
a 9 67
a 9 68
a 9 44
a 9 45
a 9 46
a 9 47
a 9 48
a 9 49
a 9 50
a 9 51
a 9 52
a 9 53
a 10 1
a 10 69
a 10 70
a 10 71
a 10 44
a 10 45
a 10 46
a 10 47
a 10 48
a 10 49
a 10 50
a 10 51
a 10 52
a 10 53
a 11 1
a 11 72
a 11 73
a 11 74
a 11 44
a 11 45
a 11 46
a 11 47
a 11 48
a 11 49
a 11 50
a 11 51
a 11 52
a 11 53
a 12 1
a 12 75
a 12 76
a 12 77
a 12 44
a 12 45
a 12 46
a 12 47
a 12 48
a 12 49
a 12 50
a 12 51
a 12 52
a 12 53
a 13 1
a 13 78
a 13 79
a 13 80
a 13 44
a 13 45
a 13 46
a 13 47
a 13 48
a 13 49
a 13 50
a 13 51
a 13 52
a 13 53
a 14 1
a 14 81
a 14 82
a 14 83
a 14 84
a 14 85
a 14 86
a 14 87
a 14 88
a 14 89
a 14 90
a 14 44
a 14 91
a 14 92
a 15 1
a 15 81
a 15 82
a 15 83
a 15 84
a 15 85
a 15 86
a 15 87
a 15 88
a 15 93
a 15 45
a 15 94
a 15 95
a 15 96
a 16 1
a 16 81
a 16 82
a 16 83
a 16 84
a 16 85
a 16 86
a 16 87
a 16 97
a 16 98
a 16 46
a 16 99
a 16 100
a 16 101
a 17 1
a 17 81
a 17 82
a 17 83
a 17 84
a 17 85
a 17 86
a 17 87
a 17 88
a 17 97
a 17 102
a 17 103
a 17 47
a 17 104
a 17 105
a 17 106
a 18 1
a 18 81
a 18 82
a 18 83
a 18 84
a 18 85
a 18 86
a 18 87
a 18 107
a 18 108
a 18 96
a 18 101
a 18 106
a 18 109
a 18 110
a 18 111
a 18 112
a 18 113
a 18 114
a 18 115
a 18 116
a 18 117
a 18 118
a 18 119
a 18 120
a 18 121
a 18 122
a 18 123
a 18 124
a 18 125
a 18 126
a 18 127
a 18 128
a 18 129
a 18 130
a 18 131
a 18 132
a 18 133
a 18 134
a 18 135
a 18 136
a 18 137
a 18 138
a 18 139
a 18 140
a 18 141
a 18 142
a 18 143
a 18 144
a 18 145
a 18 146
a 18 147
a 18 148
a 18 149
a 18 150
a 18 151
a 18 152
a 18 153
a 18 89
a 18 154
a 18 155
a 18 156
a 18 157
a 18 158
a 19 1
a 19 81
a 19 82
a 19 83
a 19 84
a 19 85
a 19 86
a 19 87
a 19 97
a 19 159
a 19 160
a 19 161
a 19 162
a 19 163
a 19 50
a 19 164
a 19 165
a 19 111
a 20 1
a 20 81
a 20 82
a 20 83
a 20 84
a 20 85
a 20 86
a 20 87
a 20 160
a 20 166
a 20 167
a 20 168
a 20 169
a 20 170
a 20 96
a 20 101
a 20 106
a 20 109
a 20 110
a 20 111
a 20 112
a 20 113
a 20 114
a 20 115
a 20 116
a 20 117
a 20 118
a 20 119
a 20 120
a 20 121
a 20 122
a 20 123
a 20 124
a 20 125
a 20 126
a 20 127
a 20 128
a 20 129
a 20 130
a 20 131
a 20 132
a 20 133
a 20 134
a 20 135
a 20 136
a 20 137
a 20 138
a 20 139
a 20 140
a 20 141
a 20 142
a 20 143
a 20 144
a 20 145
a 20 146
a 20 147
a 20 148
a 20 149
a 20 150
a 20 151
a 20 152
a 20 153
a 20 89
a 20 154
a 20 155
a 20 156
a 20 157
a 20 158
a 21 1
a 21 81
a 21 82
a 21 83
a 21 84
a 21 85
a 21 86
a 21 87
a 21 171
a 21 172
a 21 173
a 21 174
a 21 175
a 21 176
a 21 177
a 21 156
a 21 178
a 21 179
a 21 180
a 21 181
a 21 96
a 21 101
a 21 106
a 21 109
a 21 110
a 21 111
a 21 112
a 21 113
a 21 114
a 21 115
a 21 116
a 21 117
a 21 118
a 21 119
a 21 120
a 21 121
a 21 122
a 21 123
a 21 124
a 21 125
a 21 126
a 21 127
a 21 128
a 21 129
a 21 130
a 21 131
a 21 132
a 21 133
a 21 134
a 21 135
a 21 136
a 21 137
a 21 138
a 21 139
a 21 140
a 21 141
a 21 142
a 21 143
a 21 144
a 21 145
a 21 146
a 21 147
a 21 148
a 21 149
a 21 150
a 21 151
a 21 152
a 21 153
a 21 89
a 21 154
a 21 155
a 21 157
a 21 158
a 22 1
a 22 81
a 22 82
a 22 83
a 22 84
a 22 85
a 22 86
a 22 87
a 22 182
a 22 160
a 22 167
a 22 183
a 22 184
a 22 185
a 22 186
a 22 187
a 22 188
a 22 189
a 22 190
a 22 96
a 22 101
a 22 106
a 22 109
a 22 110
a 22 111
a 22 112
a 22 113
a 22 114
a 22 115
a 22 116
a 22 117
a 22 118
a 22 119
a 22 120
a 22 121
a 22 122
a 22 123
a 22 124
a 22 125
a 22 126
a 22 127
a 22 128
a 22 129
a 22 130
a 22 131
a 22 132
a 22 133
a 22 134
a 22 135
a 22 136
a 22 137
a 22 138
a 22 139
a 22 140
a 22 141
a 22 142
a 22 143
a 22 144
a 22 145
a 22 146
a 22 147
a 22 148
a 22 149
a 22 150
a 22 151
a 22 152
a 22 153
a 22 89
a 22 154
a 22 155
a 22 156
a 22 157
a 22 158
a 23 1
a 23 81
a 23 82
a 23 83
a 23 84
a 23 85
a 23 86
a 23 87
a 23 88
a 23 171
a 23 191
a 23 172
a 23 192
a 23 182
a 23 193
a 23 175
a 23 176
a 23 194
a 23 167
a 23 195
a 23 196
a 23 197
a 23 198
a 23 199
a 23 200
a 23 201
a 23 96
a 23 101
a 23 106
a 23 109
a 23 110
a 23 111
a 23 112
a 23 113
a 23 114
a 23 115
a 23 116
a 23 117
a 23 118
a 23 119
a 23 120
a 23 121
a 23 122
a 23 123
a 23 124
a 23 125
a 23 126
a 23 127
a 23 128
a 23 129
a 23 130
a 23 131
a 23 132
a 23 133
a 23 134
a 23 135
a 23 136
a 23 137
a 23 138
a 23 139
a 23 140
a 23 141
a 23 142
a 23 143
a 23 144
a 23 145
a 23 146
a 23 147
a 23 148
a 23 149
a 23 150
a 23 151
a 23 152
a 23 153
a 23 89
a 23 154
a 23 155
a 23 156
a 23 157
a 23 158
a 24 1
a 24 81
a 24 82
a 24 83
a 24 84
a 24 85
a 24 86
a 24 87
a 24 88
a 24 171
a 24 172
a 24 202
a 24 182
a 24 203
a 24 204
a 24 173
a 24 205
a 24 206
a 24 174
a 24 175
a 24 176
a 24 207
a 24 208
a 24 160
a 24 177
a 24 166
a 24 167
a 24 209
a 24 210
a 24 183
a 24 195
a 24 184
a 24 196
a 24 211
a 24 212
a 24 213
a 24 214
a 24 215
a 24 216
a 24 96
a 24 101
a 24 106
a 24 109
a 24 110
a 24 111
a 24 112
a 24 113
a 24 114
a 24 115
a 24 116
a 24 117
a 24 118
a 24 119
a 24 120
a 24 121
a 24 122
a 24 123
a 24 124
a 24 125
a 24 126
a 24 127
a 24 128
a 24 129
a 24 130
a 24 131
a 24 132
a 24 133
a 24 134
a 24 135
a 24 136
a 24 137
a 24 138
a 24 139
a 24 140
a 24 141
a 24 142
a 24 143
a 24 144
a 24 145
a 24 146
a 24 147
a 24 148
a 24 149
a 24 150
a 24 151
a 24 152
a 24 153
a 24 89
a 24 154
a 24 155
a 24 156
a 24 157
a 24 158
a 25 1
a 25 81
a 25 82
a 25 83
a 25 84
a 25 85
a 25 86
a 25 87
a 25 88
a 25 205
a 25 207
a 25 167
a 25 183
a 25 195
a 25 217
a 25 218
a 25 219
a 25 220
a 25 221
a 25 96
a 25 101
a 25 106
a 25 109
a 25 110
a 25 111
a 25 112
a 25 113
a 25 114
a 25 115
a 25 116
a 25 117
a 25 118
a 25 119
a 25 120
a 25 121
a 25 122
a 25 123
a 25 124
a 25 125
a 25 126
a 25 127
a 25 128
a 25 129
a 25 130
a 25 131
a 25 132
a 25 133
a 25 134
a 25 135
a 25 136
a 25 137
a 25 138
a 25 139
a 25 140
a 25 141
a 25 142
a 25 143
a 25 144
a 25 145
a 25 146
a 25 147
a 25 148
a 25 149
a 25 150
a 25 151
a 25 152
a 25 153
a 25 89
a 25 154
a 25 155
a 25 156
a 25 157
a 25 158
a 26 1
a 26 81
a 26 82
a 26 83
a 26 84
a 26 85
a 26 86
a 26 87
a 26 88
a 26 222
a 26 172
a 26 159
a 26 192
a 26 223
a 26 204
a 26 173
a 26 205
a 26 206
a 26 175
a 26 207
a 26 208
a 26 166
a 26 224
a 26 225
a 26 226
a 26 194
a 26 227
a 26 210
a 26 195
a 26 228
a 26 229
a 26 230
a 26 231
a 26 232
a 26 233
a 26 96
a 26 101
a 26 106
a 26 109
a 26 110
a 26 111
a 26 112
a 26 113
a 26 114
a 26 115
a 26 116
a 26 117
a 26 118
a 26 119
a 26 120
a 26 121
a 26 122
a 26 123
a 26 124
a 26 125
a 26 126
a 26 127
a 26 128
a 26 129
a 26 130
a 26 131
a 26 132
a 26 133
a 26 134
a 26 135
a 26 136
a 26 137
a 26 138
a 26 139
a 26 140
a 26 141
a 26 142
a 26 143
a 26 144
a 26 145
a 26 146
a 26 147
a 26 148
a 26 149
a 26 150
a 26 151
a 26 152
a 26 153
a 26 89
a 26 154
a 26 155
a 26 156
a 26 157
a 26 158
a 27 1
a 27 81
a 27 82
a 27 83
a 27 84
a 27 85
a 27 86
a 27 87
a 27 88
a 27 97
a 27 171
a 27 191
a 27 222
a 27 172
a 27 159
a 27 192
a 27 202
a 27 182
a 27 203
a 27 193
a 27 223
a 27 234
a 27 235
a 27 204
a 27 173
a 27 205
a 27 206
a 27 174
a 27 175
a 27 176
a 27 207
a 27 208
a 27 160
a 27 161
a 27 177
a 27 166
a 27 224
a 27 225
a 27 236
a 27 226
a 27 194
a 27 167
a 27 227
a 27 209
a 27 210
a 27 183
a 27 195
a 27 184
a 27 196
a 27 237
a 27 238
a 27 89
a 27 154
a 27 155
a 27 156
a 27 157
a 27 158
a 27 239
a 27 240
a 27 241
a 27 242
a 27 243
a 27 244
a 27 245
a 27 246
a 27 151
a 28 1
a 28 81
a 28 82
a 28 83
a 28 84
a 28 85
a 28 86
a 28 87
a 28 88
a 28 97
a 28 171
a 28 191
a 28 222
a 28 172
a 28 159
a 28 192
a 28 202
a 28 182
a 28 203
a 28 193
a 28 223
a 28 234
a 28 235
a 28 204
a 28 173
a 28 205
a 28 206
a 28 174
a 28 175
a 28 176
a 28 207
a 28 208
a 28 160
a 28 161
a 28 177
a 28 166
a 28 224
a 28 225
a 28 236
a 28 226
a 28 194
a 28 167
a 28 227
a 28 209
a 28 210
a 28 183
a 28 195
a 28 184
a 28 196
a 28 237
a 28 247
a 28 89
a 28 154
a 28 155
a 28 156
a 28 157
a 28 158
a 28 239
a 28 248
a 28 249
a 28 242
a 28 243
a 28 244
a 28 245
a 28 250
a 28 96
a 28 101
a 28 106
a 28 109
a 28 110
a 28 111
a 28 112
a 28 113
a 28 114
a 28 115
a 28 116
a 28 117
a 28 118
a 28 119
a 28 120
a 28 121
a 28 122
a 28 123
a 28 124
a 28 125
a 28 126
a 28 127
a 28 128
a 28 129
a 28 130
a 28 131
a 28 132
a 28 133
a 28 134
a 28 135
a 28 136
a 28 137
a 28 138
a 28 139
a 28 140
a 28 141
a 28 142
a 28 143
a 28 144
a 28 145
a 28 146
a 28 147
a 28 148
a 28 149
a 28 150
a 28 151
a 28 152
a 28 153
a 29 1
a 29 81
a 29 82
a 29 83
a 29 84
a 29 85
a 29 86
a 29 87
a 29 88
a 29 97
a 29 171
a 29 191
a 29 222
a 29 172
a 29 159
a 29 192
a 29 202
a 29 182
a 29 203
a 29 193
a 29 223
a 29 234
a 29 235
a 29 204
a 29 173
a 29 205
a 29 206
a 29 174
a 29 175
a 29 176
a 29 207
a 29 208
a 29 160
a 29 161
a 29 177
a 29 166
a 29 224
a 29 225
a 29 236
a 29 226
a 29 194
a 29 167
a 29 227
a 29 209
a 29 210
a 29 183
a 29 195
a 29 196
a 29 251
a 29 252
a 29 253
a 29 254
a 29 89
a 30 1
a 30 81
a 30 82
a 30 83
a 30 84
a 30 85
a 30 86
a 30 87
a 30 255
a 30 45
a 30 94
a 30 256
a 31 1
a 31 81
a 31 82
a 31 83
a 31 84
a 31 85
a 31 86
a 31 87
a 31 257
a 31 46
a 31 99
a 31 258
a 32 1
a 32 81
a 32 82
a 32 83
a 32 84
a 32 85
a 32 86
a 32 87
a 32 97
a 32 259
a 32 260
a 32 47
a 32 104
a 32 261
a 32 262
a 33 1
a 33 81
a 33 82
a 33 83
a 33 84
a 33 85
a 33 86
a 33 87
a 33 192
a 33 174
a 33 175
a 33 195
a 33 263
a 33 264
a 33 199
a 33 200
a 33 265
a 34 1
a 34 81
a 34 82
a 34 83
a 34 84
a 34 85
a 34 86
a 34 87
a 34 88
a 34 204
a 34 176
a 34 207
a 34 195
a 34 266
a 34 267
a 34 242
a 34 219
a 34 220
a 34 268
a 35 1
a 35 81
a 35 82
a 35 83
a 35 84
a 35 85
a 35 86
a 35 87
a 35 97
a 35 192
a 35 174
a 35 175
a 35 176
a 35 166
a 35 183
a 35 195
a 35 184
a 35 221
a 35 269
a 35 270
a 35 271
a 35 272
a 36 1
a 36 81
a 36 82
a 36 83
a 36 84
a 36 85
a 36 86
a 36 87
a 36 88
a 36 192
a 36 167
a 36 210
a 36 273
a 36 274
a 36 275
a 36 242
a 36 243
a 36 245
a 36 231
a 36 232
a 36 276
a 81 277
a 81 54
a 81 278
a 81 279
a 81 280
a 81 281
a 81 282
a 81 283
a 81 284
a 81 285
a 81 286
a 81 287
a 81 14
a 81 15
a 81 16
a 81 17
a 81 288
a 81 18
a 81 19
a 81 20
a 81 21
a 81 22
a 81 23
a 81 24
a 81 25
a 81 26
a 81 27
a 81 28
a 81 29
a 81 30
a 81 31
a 81 32
a 81 33
a 81 34
a 81 35
a 81 36
a 81 37
a 81 289
a 81 290
a 277 81
a 277 40
a 277 54
a 277 37
a 277 289
a 277 290
a 54 81
a 54 277
a 54 291
a 54 5
a 54 37
a 54 289
a 54 290
a 278 81
a 278 292
a 278 293
a 278 294
a 278 44
a 278 45
a 278 46
a 278 47
a 278 48
a 278 49
a 278 50
a 278 51
a 278 52
a 278 53
a 279 81
a 279 295
a 279 296
a 279 297
a 279 44
a 279 45
a 279 46
a 279 47
a 279 48
a 279 49
a 279 50
a 279 51
a 279 52
a 279 53
a 280 81
a 280 298
a 280 299
a 280 300
a 280 44
a 280 45
a 280 46
a 280 47
a 280 48
a 280 49
a 280 50
a 280 51
a 280 52
a 280 53
a 281 81
a 281 301
a 281 302
a 281 303
a 281 44
a 281 45
a 281 46
a 281 47
a 281 48
a 281 49
a 281 50
a 281 51
a 281 52
a 281 53
a 282 81
a 282 304
a 282 305
a 282 306
a 282 44
a 282 45
a 282 46
a 282 47
a 282 48
a 282 49
a 282 50
a 282 51
a 282 52
a 282 53
a 283 81
a 283 307
a 283 308
a 283 309
a 283 44
a 283 45
a 283 46
a 283 47
a 283 48
a 283 49
a 283 50
a 283 51
a 283 52
a 283 53
a 284 81
a 284 310
a 284 311
a 284 312
a 284 44
a 284 45
a 284 46
a 284 47
a 284 48
a 284 49
a 284 50
a 284 51
a 284 52
a 284 53
a 285 81
a 285 313
a 285 314
a 285 315
a 285 44
a 285 45
a 285 46
a 285 47
a 285 48
a 285 49
a 285 50
a 285 51
a 285 52
a 285 53
a 286 81
a 286 316
a 286 317
a 286 318
a 286 44
a 286 45
a 286 46
a 286 47
a 286 48
a 286 49
a 286 50
a 286 51
a 286 52
a 286 53
a 287 81
a 287 319
a 287 320
a 287 321
a 287 44
a 287 45
a 287 46
a 287 47
a 287 48
a 287 49
a 287 50
a 287 51
a 287 52
a 287 53
a 288 81
a 288 82
a 288 83
a 288 84
a 288 85
a 288 86
a 288 87
a 288 97
a 288 160
a 288 322
a 288 154
a 288 323
a 288 48
a 288 324
a 288 325
a 288 96
a 288 101
a 288 106
a 288 109
a 288 110
a 288 111
a 288 112
a 288 113
a 288 114
a 288 115
a 288 116
a 288 117
a 288 118
a 288 119
a 288 120
a 288 121
a 288 122
a 288 123
a 288 124
a 288 125
a 288 126
a 288 127
a 288 128
a 288 129
a 288 130
a 288 131
a 288 132
a 288 133
a 288 134
a 288 135
a 288 136
a 288 137
a 288 138
a 288 139
a 288 140
a 288 141
a 288 142
a 288 143
a 288 144
a 288 145
a 288 146
a 288 147
a 288 148
a 288 149
a 288 150
a 288 151
a 288 152
a 288 153
a 288 89
a 288 155
a 288 156
a 288 157
a 288 158
a 82 326
a 82 57
a 82 327
a 82 328
a 82 329
a 82 330
a 82 331
a 82 332
a 82 333
a 82 334
a 82 335
a 82 336
a 82 14
a 82 15
a 82 16
a 82 17
a 82 288
a 82 18
a 82 19
a 82 20
a 82 21
a 82 22
a 82 23
a 82 24
a 82 25
a 82 26
a 82 27
a 82 28
a 82 29
a 82 30
a 82 31
a 82 32
a 82 33
a 82 34
a 82 35
a 82 36
a 82 37
a 82 337
a 82 338
a 326 82
a 326 40
a 326 57
a 326 37
a 326 337
a 326 338
a 57 82
a 57 326
a 57 339
a 57 6
a 57 37
a 57 337
a 57 338
a 327 82
a 327 340
a 327 341
a 327 342
a 327 44
a 327 45
a 327 46
a 327 47
a 327 48
a 327 49
a 327 50
a 327 51
a 327 52
a 327 53
a 328 82
a 328 343
a 328 344
a 328 345
a 328 44
a 328 45
a 328 46
a 328 47
a 328 48
a 328 49
a 328 50
a 328 51
a 328 52
a 328 53
a 329 82
a 329 346
a 329 347
a 329 348
a 329 44
a 329 45
a 329 46
a 329 47
a 329 48
a 329 49
a 329 50
a 329 51
a 329 52
a 329 53
a 330 82
a 330 349
a 330 350
a 330 351
a 330 44
a 330 45
a 330 46
a 330 47
a 330 48
a 330 49
a 330 50
a 330 51
a 330 52
a 330 53
a 331 82
a 331 352
a 331 353
a 331 354
a 331 44
a 331 45
a 331 46
a 331 47
a 331 48
a 331 49
a 331 50
a 331 51
a 331 52
a 331 53
a 332 82
a 332 355
a 332 356
a 332 357
a 332 44
a 332 45
a 332 46
a 332 47
a 332 48
a 332 49
a 332 50
a 332 51
a 332 52
a 332 53
a 333 82
a 333 358
a 333 359
a 333 360
a 333 44
a 333 45
a 333 46
a 333 47
a 333 48
a 333 49
a 333 50
a 333 51
a 333 52
a 333 53
a 334 82
a 334 361
a 334 362
a 334 363
a 334 44
a 334 45
a 334 46
a 334 47
a 334 48
a 334 49
a 334 50
a 334 51
a 334 52
a 334 53
a 335 82
a 335 364
a 335 365
a 335 366
a 335 44
a 335 45
a 335 46
a 335 47
a 335 48
a 335 49
a 335 50
a 335 51
a 335 52
a 335 53
a 336 82
a 336 367
a 336 368
a 336 369
a 336 44
a 336 45
a 336 46
a 336 47
a 336 48
a 336 49
a 336 50
a 336 51
a 336 52
a 336 53
a 83 370
a 83 60
a 83 371
a 83 372
a 83 373
a 83 374
a 83 375
a 83 376
a 83 377
a 83 378
a 83 379
a 83 380
a 83 14
a 83 15
a 83 16
a 83 17
a 83 288
a 83 18
a 83 19
a 83 20
a 83 21
a 83 22
a 83 23
a 83 24
a 83 25
a 83 26
a 83 27
a 83 28
a 83 29
a 83 30
a 83 31
a 83 32
a 83 33
a 83 34
a 83 35
a 83 36
a 83 37
a 83 381
a 83 382
a 370 83
a 370 40
a 370 60
a 370 37
a 370 381
a 370 382
a 60 83
a 60 370
a 60 383
a 60 7
a 60 37
a 60 381
a 60 382
a 371 83
a 371 384
a 371 385
a 371 386
a 371 44
a 371 45
a 371 46
a 371 47
a 371 48
a 371 49
a 371 50
a 371 51
a 371 52
a 371 53
a 372 83
a 372 387
a 372 388
a 372 389
a 372 44
a 372 45
a 372 46
a 372 47
a 372 48
a 372 49
a 372 50
a 372 51
a 372 52
a 372 53
a 373 83
a 373 390
a 373 391
a 373 392
a 373 44
a 373 45
a 373 46
a 373 47
a 373 48
a 373 49
a 373 50
a 373 51
a 373 52
a 373 53
a 374 83
a 374 393
a 374 394
a 374 395
a 374 44
a 374 45
a 374 46
a 374 47
a 374 48
a 374 49
a 374 50
a 374 51
a 374 52
a 374 53
a 375 83
a 375 396
a 375 397
a 375 398
a 375 44
a 375 45
a 375 46
a 375 47
a 375 48
a 375 49
a 375 50
a 375 51
a 375 52
a 375 53
a 376 83
a 376 399
a 376 400
a 376 401
a 376 44
a 376 45
a 376 46
a 376 47
a 376 48
a 376 49
a 376 50
a 376 51
a 376 52
a 376 53
a 377 83
a 377 402
a 377 403
a 377 404
a 377 44
a 377 45
a 377 46
a 377 47
a 377 48
a 377 49
a 377 50
a 377 51
a 377 52
a 377 53
a 378 83
a 378 405
a 378 406
a 378 407
a 378 44
a 378 45
a 378 46
a 378 47
a 378 48
a 378 49
a 378 50
a 378 51
a 378 52
a 378 53
a 379 83
a 379 408
a 379 409
a 379 410
a 379 44
a 379 45
a 379 46
a 379 47
a 379 48
a 379 49
a 379 50
a 379 51
a 379 52
a 379 53
a 380 83
a 380 411
a 380 412
a 380 413
a 380 44
a 380 45
a 380 46
a 380 47
a 380 48
a 380 49
a 380 50
a 380 51
a 380 52
a 380 53
a 84 414
a 84 63
a 84 415
a 84 416
a 84 417
a 84 418
a 84 419
a 84 420
a 84 421
a 84 422
a 84 423
a 84 424
a 84 14
a 84 15
a 84 16
a 84 17
a 84 288
a 84 18
a 84 19
a 84 20
a 84 21
a 84 22
a 84 23
a 84 24
a 84 25
a 84 26
a 84 27
a 84 28
a 84 29
a 84 30
a 84 31
a 84 32
a 84 33
a 84 34
a 84 35
a 84 36
a 84 37
a 84 425
a 84 426
a 414 84
a 414 40
a 414 63
a 414 37
a 414 425
a 414 426
a 63 84
a 63 414
a 63 427
a 63 8
a 63 37
a 63 425
a 63 426
a 415 84
a 415 428
a 415 429
a 415 430
a 415 44
a 415 45
a 415 46
a 415 47
a 415 48
a 415 49
a 415 50
a 415 51
a 415 52
a 415 53
a 416 84
a 416 431
a 416 432
a 416 433
a 416 44
a 416 45
a 416 46
a 416 47
a 416 48
a 416 49
a 416 50
a 416 51
a 416 52
a 416 53
a 417 84
a 417 434
a 417 435
a 417 436
a 417 44
a 417 45
a 417 46
a 417 47
a 417 48
a 417 49
a 417 50
a 417 51
a 417 52
a 417 53
a 418 84
a 418 437
a 418 438
a 418 439
a 418 44
a 418 45
a 418 46
a 418 47
a 418 48
a 418 49
a 418 50
a 418 51
a 418 52
a 418 53
a 419 84
a 419 440
a 419 441
a 419 442
a 419 44
a 419 45
a 419 46
a 419 47
a 419 48
a 419 49
a 419 50
a 419 51
a 419 52
a 419 53
a 420 84
a 420 443
a 420 444
a 420 445
a 420 44
a 420 45
a 420 46
a 420 47
a 420 48
a 420 49
a 420 50
a 420 51
a 420 52
a 420 53
a 421 84
a 421 446
a 421 447
a 421 448
a 421 44
a 421 45
a 421 46
a 421 47
a 421 48
a 421 49
a 421 50
a 421 51
a 421 52
a 421 53
a 422 84
a 422 449
a 422 450
a 422 451
a 422 44
a 422 45
a 422 46
a 422 47
a 422 48
a 422 49
a 422 50
a 422 51
a 422 52
a 422 53
a 423 84
a 423 452
a 423 453
a 423 454
a 423 44
a 423 45
a 423 46
a 423 47
a 423 48
a 423 49
a 423 50
a 423 51
a 423 52
a 423 53
a 424 84
a 424 455
a 424 456
a 424 457
a 424 44
a 424 45
a 424 46
a 424 47
a 424 48
a 424 49
a 424 50
a 424 51
a 424 52
a 424 53
a 85 458
a 85 66
a 85 459
a 85 460
a 85 43
a 85 56
a 85 59
a 85 62
a 85 65
a 85 68
a 85 71
a 85 74
a 85 14
a 85 15
a 85 16
a 85 17
a 85 288
a 85 18
a 85 19
a 85 20
a 85 21
a 85 22
a 85 23
a 85 24
a 85 25
a 85 26
a 85 27
a 85 28
a 85 29
a 85 30
a 85 31
a 85 32
a 85 33
a 85 34
a 85 35
a 85 36
a 85 37
a 85 461
a 85 462
a 458 85
a 458 40
a 458 66
a 458 37
a 458 461
a 458 462
a 66 85
a 66 458
a 66 463
a 66 9
a 66 37
a 66 461
a 66 462
a 459 85
a 459 464
a 459 465
a 459 466
a 459 44
a 459 45
a 459 46
a 459 47
a 459 48
a 459 49
a 459 50
a 459 51
a 459 52
a 459 53
a 460 85
a 460 92
a 460 467
a 460 468
a 460 44
a 460 45
a 460 46
a 460 47
a 460 48
a 460 49
a 460 50
a 460 51
a 460 52
a 460 53
a 43 85
a 43 4
a 43 469
a 43 470
a 43 44
a 43 45
a 43 46
a 43 47
a 43 48
a 43 49
a 43 50
a 43 51
a 43 52
a 43 53
a 56 85
a 56 5
a 56 471
a 56 472
a 56 44
a 56 45
a 56 46
a 56 47
a 56 48
a 56 49
a 56 50
a 56 51
a 56 52
a 56 53
a 59 85
a 59 6
a 59 473
a 59 474
a 59 44
a 59 45
a 59 46
a 59 47
a 59 48
a 59 49
a 59 50
a 59 51
a 59 52
a 59 53
a 62 85
a 62 7
a 62 475
a 62 476
a 62 44
a 62 45
a 62 46
a 62 47
a 62 48
a 62 49
a 62 50
a 62 51
a 62 52
a 62 53
a 65 85
a 65 8
a 65 477
a 65 478
a 65 44
a 65 45
a 65 46
a 65 47
a 65 48
a 65 49
a 65 50
a 65 51
a 65 52
a 65 53
a 68 85
a 68 9
a 68 479
a 68 480
a 68 44
a 68 45
a 68 46
a 68 47
a 68 48
a 68 49
a 68 50
a 68 51
a 68 52
a 68 53
a 71 85
a 71 10
a 71 481
a 71 482
a 71 44
a 71 45
a 71 46
a 71 47
a 71 48
a 71 49
a 71 50
a 71 51
a 71 52
a 71 53
a 74 85
a 74 11
a 74 483
a 74 484
a 74 44
a 74 45
a 74 46
a 74 47
a 74 48
a 74 49
a 74 50
a 74 51
a 74 52
a 74 53
a 86 485
a 86 69
a 86 77
a 86 80
a 86 294
a 86 297
a 86 300
a 86 303
a 86 306
a 86 309
a 86 312
a 86 315
a 86 14
a 86 15
a 86 16
a 86 17
a 86 288
a 86 18
a 86 19
a 86 20
a 86 21
a 86 22
a 86 23
a 86 24
a 86 25
a 86 26
a 86 27
a 86 28
a 86 29
a 86 30
a 86 31
a 86 32
a 86 33
a 86 34
a 86 35
a 86 36
a 86 37
a 86 486
a 86 487
a 485 86
a 485 40
a 485 69
a 485 37
a 485 486
a 485 487
a 69 86
a 69 485
a 69 488
a 69 10
a 69 37
a 69 486
a 69 487
a 77 86
a 77 12
a 77 489
a 77 490
a 77 44
a 77 45
a 77 46
a 77 47
a 77 48
a 77 49
a 77 50
a 77 51
a 77 52
a 77 53
a 80 86
a 80 13
a 80 491
a 80 492
a 80 44
a 80 45
a 80 46
a 80 47
a 80 48
a 80 49
a 80 50
a 80 51
a 80 52
a 80 53
a 294 86
a 294 278
a 294 469
a 294 493
a 294 44
a 294 45
a 294 46
a 294 47
a 294 48
a 294 49
a 294 50
a 294 51
a 294 52
a 294 53
a 297 86
a 297 279
a 297 471
a 297 494
a 297 44
a 297 45
a 297 46
a 297 47
a 297 48
a 297 49
a 297 50
a 297 51
a 297 52
a 297 53
a 300 86
a 300 280
a 300 473
a 300 495
a 300 44
a 300 45
a 300 46
a 300 47
a 300 48
a 300 49
a 300 50
a 300 51
a 300 52
a 300 53
a 303 86
a 303 281
a 303 475
a 303 496
a 303 44
a 303 45
a 303 46
a 303 47
a 303 48
a 303 49
a 303 50
a 303 51
a 303 52
a 303 53
a 306 86
a 306 282
a 306 477
a 306 497
a 306 44
a 306 45
a 306 46
a 306 47
a 306 48
a 306 49
a 306 50
a 306 51
a 306 52
a 306 53
a 309 86
a 309 283
a 309 479
a 309 498
a 309 44
a 309 45
a 309 46
a 309 47
a 309 48
a 309 49
a 309 50
a 309 51
a 309 52
a 309 53
a 312 86
a 312 284
a 312 481
a 312 499
a 312 44
a 312 45
a 312 46
a 312 47
a 312 48
a 312 49
a 312 50
a 312 51
a 312 52
a 312 53
a 315 86
a 315 285
a 315 483
a 315 500
a 315 44
a 315 45
a 315 46
a 315 47
a 315 48
a 315 49
a 315 50
a 315 51
a 315 52
a 315 53
a 87 501
a 87 72
a 87 318
a 87 321
a 87 342
a 87 345
a 87 348
a 87 351
a 87 354
a 87 357
a 87 360
a 87 363
a 87 14
a 87 15
a 87 16
a 87 17
a 87 288
a 87 18
a 87 19
a 87 20
a 87 21
a 87 22
a 87 23
a 87 24
a 87 25
a 87 26
a 87 27
a 87 28
a 87 29
a 87 30
a 87 31
a 87 32
a 87 33
a 87 34
a 87 35
a 87 36
a 87 37
a 87 502
a 87 503
a 501 87
a 501 40
a 501 72
a 501 37
a 501 502
a 501 503
a 72 87
a 72 501
a 72 504
a 72 11
a 72 37
a 72 502
a 72 503
a 318 87
a 318 286
a 318 489
a 318 505
a 318 44
a 318 45
a 318 46
a 318 47
a 318 48
a 318 49
a 318 50
a 318 51
a 318 52
a 318 53
a 321 87
a 321 287
a 321 491
a 321 506
a 321 44
a 321 45
a 321 46
a 321 47
a 321 48
a 321 49
a 321 50
a 321 51
a 321 52
a 321 53
a 342 87
a 342 327
a 342 469
a 342 507
a 342 44
a 342 45
a 342 46
a 342 47
a 342 48
a 342 49
a 342 50
a 342 51
a 342 52
a 342 53
a 345 87
a 345 328
a 345 471
a 345 508
a 345 44
a 345 45
a 345 46
a 345 47
a 345 48
a 345 49
a 345 50
a 345 51
a 345 52
a 345 53
a 348 87
a 348 329
a 348 473
a 348 509
a 348 44
a 348 45
a 348 46
a 348 47
a 348 48
a 348 49
a 348 50
a 348 51
a 348 52
a 348 53
a 351 87
a 351 330
a 351 475
a 351 510
a 351 44
a 351 45
a 351 46
a 351 47
a 351 48
a 351 49
a 351 50
a 351 51
a 351 52
a 351 53
a 354 87
a 354 331
a 354 477
a 354 511
a 354 44
a 354 45
a 354 46
a 354 47
a 354 48
a 354 49
a 354 50
a 354 51
a 354 52
a 354 53
a 357 87
a 357 332
a 357 479
a 357 512
a 357 44
a 357 45
a 357 46
a 357 47
a 357 48
a 357 49
a 357 50
a 357 51
a 357 52
a 357 53
a 360 87
a 360 333
a 360 481
a 360 513
a 360 44
a 360 45
a 360 46
a 360 47
a 360 48
a 360 49
a 360 50
a 360 51
a 360 52
a 360 53
a 363 87
a 363 334
a 363 483
a 363 514
a 363 44
a 363 45
a 363 46
a 363 47
a 363 48
a 363 49
a 363 50
a 363 51
a 363 52
a 363 53
a 88 515
a 88 75
a 88 366
a 88 14
a 88 15
a 88 17
a 88 516
a 88 23
a 88 24
a 88 25
a 88 517
a 88 518
a 88 26
a 88 27
a 88 28
a 88 29
a 88 519
a 88 34
a 88 520
a 88 36
a 88 37
a 88 521
a 515 88
a 515 40
a 515 75
a 515 37
a 515 521
a 75 88
a 75 515
a 75 522
a 75 12
a 75 37
a 75 521
a 75 523
a 366 88
a 366 335
a 366 489
a 366 524
a 516 88
a 516 208
a 516 160
a 516 161
a 516 167
a 516 525
a 516 526
a 516 527
a 516 113
a 517 88
a 517 160
a 517 161
a 517 167
a 517 528
a 517 529
a 517 530
a 517 531
a 517 96
a 517 101
a 517 106
a 517 109
a 517 110
a 517 111
a 517 112
a 517 113
a 517 114
a 517 115
a 517 116
a 517 117
a 517 118
a 517 119
a 517 120
a 517 121
a 517 122
a 517 123
a 517 124
a 517 125
a 517 126
a 517 127
a 517 128
a 517 129
a 517 130
a 517 131
a 517 132
a 517 133
a 517 134
a 517 135
a 517 136
a 517 137
a 517 138
a 517 139
a 517 140
a 517 141
a 517 142
a 517 143
a 517 144
a 517 145
a 517 146
a 517 147
a 517 148
a 517 149
a 517 150
a 517 151
a 517 152
a 517 153
a 517 89
a 517 154
a 517 155
a 517 156
a 517 157
a 517 158
a 518 88
a 518 97
a 518 171
a 518 191
a 518 222
a 518 172
a 518 159
a 518 192
a 518 202
a 518 203
a 518 193
a 518 235
a 518 204
a 518 173
a 518 205
a 518 206
a 518 174
a 518 175
a 518 176
a 518 207
a 518 208
a 518 160
a 518 161
a 518 177
a 518 166
a 518 224
a 518 225
a 518 236
a 518 194
a 518 167
a 518 227
a 518 209
a 518 210
a 518 532
a 518 533
a 518 534
a 518 535
a 518 536
a 518 273
a 518 96
a 518 101
a 518 106
a 518 109
a 518 110
a 518 111
a 518 112
a 518 113
a 518 114
a 518 115
a 518 116
a 518 117
a 518 118
a 518 119
a 518 120
a 518 121
a 518 122
a 518 123
a 518 124
a 518 125
a 518 126
a 518 127
a 518 128
a 518 129
a 518 130
a 518 131
a 518 132
a 518 133
a 518 134
a 518 135
a 518 136
a 518 137
a 518 138
a 518 139
a 518 140
a 518 141
a 518 142
a 518 143
a 518 144
a 518 145
a 518 146
a 518 147
a 518 148
a 518 149
a 518 150
a 518 151
a 518 152
a 518 153
a 518 89
a 518 154
a 518 155
a 518 156
a 518 157
a 518 158
a 519 88
a 519 537
a 519 44
a 519 91
a 519 538
a 520 88
a 520 97
a 520 171
a 520 191
a 520 222
a 520 172
a 520 159
a 520 192
a 520 202
a 520 203
a 520 193
a 520 235
a 520 204
a 520 173
a 520 205
a 520 206
a 520 174
a 520 175
a 520 176
a 520 207
a 520 208
a 520 160
a 520 161
a 520 177
a 520 166
a 520 224
a 520 225
a 520 236
a 520 194
a 520 167
a 520 227
a 520 209
a 520 210
a 520 539
a 520 535
a 520 536
a 520 199
a 97 540
a 97 78
a 97 369
a 97 16
a 97 17
a 97 288
a 97 19
a 97 541
a 97 518
a 97 542
a 97 27
a 97 28
a 97 29
a 97 32
a 97 543
a 97 544
a 97 35
a 97 520
a 97 545
a 97 37
a 97 546
a 540 97
a 540 40
a 540 78
a 540 37
a 540 546
a 78 97
a 78 540
a 78 547
a 78 13
a 78 37
a 78 546
a 78 548
a 369 97
a 369 336
a 369 491
a 369 549
a 541 97
a 541 159
a 541 175
a 541 208
a 541 160
a 541 167
a 541 550
a 541 551
a 541 552
a 541 553
a 541 554
a 541 96
a 541 101
a 541 106
a 541 109
a 541 110
a 541 111
a 541 112
a 541 113
a 541 114
a 541 115
a 541 116
a 541 117
a 541 118
a 541 119
a 541 120
a 541 121
a 541 122
a 541 123
a 541 124
a 541 125
a 541 126
a 541 127
a 541 128
a 541 129
a 541 130
a 541 131
a 541 132
a 541 133
a 541 134
a 541 135
a 541 136
a 541 137
a 541 138
a 541 139
a 541 140
a 541 141
a 541 142
a 541 143
a 541 144
a 541 145
a 541 146
a 541 147
a 541 148
a 541 149
a 541 150
a 541 151
a 541 152
a 541 153
a 541 89
a 541 154
a 541 155
a 541 156
a 541 157
a 541 158
a 542 97
a 542 222
a 542 223
a 542 206
a 542 225
a 542 226
a 542 195
a 542 196
a 542 555
a 542 556
a 542 557
a 542 558
a 542 559
a 542 96
a 542 101
a 542 106
a 542 109
a 542 110
a 542 111
a 542 112
a 542 113
a 542 114
a 542 115
a 542 116
a 542 117
a 542 118
a 542 119
a 542 120
a 542 121
a 542 122
a 542 123
a 542 124
a 542 125
a 542 126
a 542 127
a 542 128
a 542 129
a 542 130
a 542 131
a 542 132
a 542 133
a 542 134
a 542 135
a 542 136
a 542 137
a 542 138
a 542 139
a 542 140
a 542 141
a 542 142
a 542 143
a 542 144
a 542 145
a 542 146
a 542 147
a 542 148
a 542 149
a 542 150
a 542 151
a 542 152
a 542 153
a 542 89
a 542 154
a 542 155
a 542 156
a 542 157
a 542 158
a 543 97
a 543 161
a 543 560
a 543 561
a 543 48
a 543 324
a 543 562
a 543 563
a 543 37
a 543 38
a 543 289
a 543 337
a 543 381
a 543 425
a 543 461
a 543 486
a 543 502
a 543 521
a 543 546
a 543 564
a 543 565
a 543 566
a 543 567
a 543 568
a 543 569
a 543 570
a 543 571
a 543 572
a 543 573
a 543 574
a 543 575
a 543 576
a 543 577
a 543 578
a 543 579
a 543 580
a 543 581
a 543 582
a 543 583
a 543 584
a 543 585
a 543 586
a 543 587
a 543 588
a 543 589
a 543 590
a 543 591
a 543 592
a 543 593
a 543 594
a 543 262
a 544 97
a 544 161
a 544 201
a 544 595
a 544 552
a 544 553
a 544 596
a 545 97
a 545 195
a 545 531
a 545 597
a 545 557
a 545 558
a 545 214
a 171 598
a 171 292
a 171 386
a 171 599
a 171 21
a 171 23
a 171 24
a 171 518
a 171 27
a 171 28
a 171 29
a 171 600
a 171 520
a 171 37
a 171 564
a 598 171
a 598 40
a 598 292
a 598 37
a 598 564
a 292 171
a 292 598
a 292 601
a 292 278
a 292 37
a 292 564
a 292 602
a 386 171
a 386 371
a 386 469
a 386 603
a 599 171
a 599 191
a 599 176
a 599 155
a 599 604
a 599 51
a 599 605
a 599 606
a 599 96
a 599 101
a 599 106
a 599 109
a 599 110
a 599 111
a 599 112
a 599 113
a 599 114
a 599 115
a 599 116
a 599 117
a 599 118
a 599 119
a 599 120
a 599 121
a 599 122
a 599 123
a 599 124
a 599 125
a 599 126
a 599 127
a 599 128
a 599 129
a 599 130
a 599 131
a 599 132
a 599 133
a 599 134
a 599 135
a 599 136
a 599 137
a 599 138
a 599 139
a 599 140
a 599 141
a 599 142
a 599 143
a 599 144
a 599 145
a 599 146
a 599 147
a 599 148
a 599 149
a 599 150
a 599 151
a 599 152
a 599 153
a 599 89
a 599 154
a 599 156
a 599 157
a 599 158
a 600 171
a 600 191
a 600 176
a 600 607
a 600 51
a 600 605
a 600 608
a 600 609
a 191 610
a 191 295
a 191 389
a 191 599
a 191 611
a 191 612
a 191 23
a 191 518
a 191 27
a 191 28
a 191 29
a 191 600
a 191 613
a 191 520
a 191 37
a 191 565
a 610 191
a 610 40
a 610 295
a 610 37
a 610 565
a 295 191
a 295 610
a 295 614
a 295 279
a 295 37
a 295 565
a 295 615
a 389 191
a 389 372
a 389 471
a 389 616
a 611 191
a 611 172
a 611 176
a 611 208
a 611 177
a 611 617
a 611 618
a 611 619
a 611 96
a 611 101
a 611 106
a 611 109
a 611 110
a 611 111
a 611 112
a 611 113
a 611 114
a 611 115
a 611 116
a 611 117
a 611 118
a 611 119
a 611 120
a 611 121
a 611 122
a 611 123
a 611 124
a 611 125
a 611 126
a 611 127
a 611 128
a 611 129
a 611 130
a 611 131
a 611 132
a 611 133
a 611 134
a 611 135
a 611 136
a 611 137
a 611 138
a 611 139
a 611 140
a 611 141
a 611 142
a 611 143
a 611 144
a 611 145
a 611 146
a 611 147
a 611 148
a 611 149
a 611 150
a 611 151
a 611 152
a 611 153
a 611 89
a 611 154
a 611 155
a 611 156
a 611 157
a 611 158
a 612 191
a 612 620
a 612 157
a 612 621
a 612 622
a 612 96
a 612 101
a 612 106
a 612 109
a 612 110
a 612 111
a 612 112
a 612 113
a 612 114
a 612 115
a 612 116
a 612 117
a 612 118
a 612 119
a 612 120
a 612 121
a 612 122
a 612 123
a 612 124
a 612 125
a 612 126
a 612 127
a 612 128
a 612 129
a 612 130
a 612 131
a 612 132
a 612 133
a 612 134
a 612 135
a 612 136
a 612 137
a 612 138
a 612 139
a 612 140
a 612 141
a 612 142
a 612 143
a 612 144
a 612 145
a 612 146
a 612 147
a 612 148
a 612 149
a 612 150
a 612 151
a 612 152
a 612 153
a 612 89
a 612 154
a 612 155
a 612 156
a 612 158
a 613 191
a 613 176
a 613 623
a 613 179
a 613 180
a 613 45
a 222 624
a 222 298
a 222 392
a 222 518
a 222 542
a 222 26
a 222 625
a 222 27
a 222 28
a 222 29
a 222 520
a 222 37
a 222 566
a 624 222
a 624 40
a 624 298
a 624 37
a 624 566
a 298 222
a 298 624
a 298 626
a 298 280
a 298 37
a 298 566
a 298 627
a 392 222
a 392 373
a 392 473
a 392 628
a 625 222
a 625 206
a 625 224
a 625 226
a 625 194
a 625 239
a 625 629
a 625 630
a 625 150
a 172 631
a 172 301
a 172 395
a 172 611
a 172 21
a 172 23
a 172 24
a 172 632
a 172 518
a 172 26
a 172 27
a 172 28
a 172 29
a 172 633
a 172 520
a 172 37
a 172 567
a 631 172
a 631 40
a 631 301
a 631 37
a 631 567
a 301 172
a 301 631
a 301 634
a 301 281
a 301 37
a 301 567
a 301 635
a 395 172
a 395 374
a 395 475
a 395 636
a 632 172
a 632 176
a 632 167
a 632 637
a 632 638
a 632 639
a 632 96
a 632 101
a 632 106
a 632 109
a 632 110
a 632 111
a 632 112
a 632 113
a 632 114
a 632 115
a 632 116
a 632 117
a 632 118
a 632 119
a 632 120
a 632 121
a 632 122
a 632 123
a 632 124
a 632 125
a 632 126
a 632 127
a 632 128
a 632 129
a 632 130
a 632 131
a 632 132
a 632 133
a 632 134
a 632 135
a 632 136
a 632 137
a 632 138
a 632 139
a 632 140
a 632 141
a 632 142
a 632 143
a 632 144
a 632 145
a 632 146
a 632 147
a 632 148
a 632 149
a 632 150
a 632 151
a 632 152
a 632 153
a 632 89
a 632 154
a 632 155
a 632 156
a 632 157
a 632 158
a 633 172
a 633 170
a 633 640
a 633 47
a 159 641
a 159 304
a 159 398
a 159 19
a 159 541
a 159 518
a 159 26
a 159 27
a 159 28
a 159 29
a 159 642
a 159 520
a 159 37
a 159 568
a 641 159
a 641 40
a 641 304
a 641 37
a 641 568
a 304 159
a 304 641
a 304 643
a 304 282
a 304 37
a 304 568
a 304 644
a 398 159
a 398 375
a 398 477
a 398 645
a 642 159
a 642 95
a 642 646
a 642 50
a 642 164
a 642 647
a 642 609
a 192 648
a 192 307
a 192 401
a 192 23
a 192 649
a 192 518
a 192 26
a 192 27
a 192 28
a 192 29
a 192 33
a 192 35
a 192 520
a 192 36
a 192 37
a 192 569
a 648 192
a 648 40
a 648 307
a 648 37
a 648 569
a 307 192
a 307 648
a 307 650
a 307 283
a 307 37
a 307 569
a 307 651
a 401 192
a 401 376
a 401 479
a 401 652
a 649 192
a 649 202
a 649 203
a 649 173
a 649 205
a 649 206
a 649 174
a 649 166
a 649 224
a 649 183
a 649 195
a 649 653
a 649 654
a 649 270
a 649 271
a 649 655
a 649 96
a 649 101
a 649 106
a 649 109
a 649 110
a 649 111
a 649 112
a 649 113
a 649 114
a 649 115
a 649 116
a 649 117
a 649 118
a 649 119
a 649 120
a 649 121
a 649 122
a 649 123
a 649 124
a 649 125
a 649 126
a 649 127
a 649 128
a 649 129
a 649 130
a 649 131
a 649 132
a 649 133
a 649 134
a 649 135
a 649 136
a 649 137
a 649 138
a 649 139
a 649 140
a 649 141
a 649 142
a 649 143
a 649 144
a 649 145
a 649 146
a 649 147
a 649 148
a 649 149
a 649 150
a 649 151
a 649 152
a 649 153
a 649 89
a 649 154
a 649 155
a 649 156
a 649 157
a 649 158
a 202 656
a 202 310
a 202 404
a 202 24
a 202 649
a 202 518
a 202 657
a 202 27
a 202 28
a 202 29
a 202 520
a 202 37
a 202 570
a 656 202
a 656 40
a 656 310
a 656 37
a 656 570
a 310 202
a 310 656
a 310 658
a 310 284
a 310 37
a 310 570
a 310 659
a 404 202
a 404 377
a 404 481
a 404 660
a 657 202
a 657 223
a 657 234
a 657 235
a 657 204
a 657 173
a 657 205
a 657 206
a 657 174
a 657 175
a 657 194
a 657 167
a 657 210
a 657 195
a 657 661
a 657 662
a 657 245
a 657 663
a 657 664
a 657 665
a 657 96
a 657 101
a 657 106
a 657 109
a 657 110
a 657 111
a 657 112
a 657 113
a 657 114
a 657 115
a 657 116
a 657 117
a 657 118
a 657 119
a 657 120
a 657 121
a 657 122
a 657 123
a 657 124
a 657 125
a 657 126
a 657 127
a 657 128
a 657 129
a 657 130
a 657 131
a 657 132
a 657 133
a 657 134
a 657 135
a 657 136
a 657 137
a 657 138
a 657 139
a 657 140
a 657 141
a 657 142
a 657 143
a 657 144
a 657 145
a 657 146
a 657 147
a 657 148
a 657 149
a 657 150
a 657 151
a 657 152
a 657 153
a 657 89
a 657 154
a 657 155
a 657 156
a 657 157
a 657 158
a 182 666
a 182 313
a 182 407
a 182 22
a 182 23
a 182 24
a 182 27
a 182 28
a 182 29
a 182 37
a 182 571
a 666 182
a 666 40
a 666 313
a 666 37
a 666 571
a 313 182
a 313 666
a 313 667
a 313 285
a 313 37
a 313 571
a 313 668
a 407 182
a 407 378
a 407 483
a 407 669
a 203 670
a 203 316
a 203 410
a 203 24
a 203 649
a 203 518
a 203 27
a 203 28
a 203 29
a 203 671
a 203 520
a 203 37
a 203 572
a 670 203
a 670 40
a 670 316
a 670 37
a 670 572
a 316 203
a 316 670
a 316 672
a 316 286
a 316 37
a 316 572
a 316 673
a 410 203
a 410 379
a 410 489
a 410 674
a 671 203
a 671 622
a 671 675
a 671 676
a 193 677
a 193 319
a 193 413
a 193 23
a 193 518
a 193 27
a 193 28
a 193 29
a 193 520
a 193 37
a 193 573
a 677 193
a 677 40
a 677 319
a 677 37
a 677 573
a 319 193
a 319 677
a 319 678
a 319 287
a 319 37
a 319 573
a 319 679
a 413 193
a 413 380
a 413 491
a 413 680
a 223 681
a 223 340
a 223 430
a 223 542
a 223 682
a 223 657
a 223 26
a 223 27
a 223 28
a 223 29
a 223 683
a 223 37
a 223 574
a 681 223
a 681 40
a 681 340
a 681 37
a 681 574
a 340 223
a 340 681
a 340 684
a 340 327
a 340 37
a 340 574
a 340 685
a 430 223
a 430 415
a 430 469
a 430 686
a 682 223
a 682 226
a 682 167
a 682 687
a 682 688
a 682 689
a 682 690
a 682 691
a 682 96
a 682 101
a 682 106
a 682 109
a 682 110
a 682 111
a 682 112
a 682 113
a 682 114
a 682 115
a 682 116
a 682 117
a 682 118
a 682 119
a 682 120
a 682 121
a 682 122
a 682 123
a 682 124
a 682 125
a 682 126
a 682 127
a 682 128
a 682 129
a 682 130
a 682 131
a 682 132
a 682 133
a 682 134
a 682 135
a 682 136
a 682 137
a 682 138
a 682 139
a 682 140
a 682 141
a 682 142
a 682 143
a 682 144
a 682 145
a 682 146
a 682 147
a 682 148
a 682 149
a 682 150
a 682 151
a 682 152
a 682 153
a 682 89
a 682 154
a 682 155
a 682 156
a 682 157
a 682 158
a 683 223
a 683 190
a 683 692
a 683 245
a 683 693
a 234 694
a 234 343
a 234 433
a 234 657
a 234 27
a 234 28
a 234 29
a 234 37
a 234 575
a 694 234
a 694 40
a 694 343
a 694 37
a 694 575
a 343 234
a 343 694
a 343 695
a 343 328
a 343 37
a 343 575
a 343 696
a 433 234
a 433 416
a 433 471
a 433 697
a 235 698
a 235 346
a 235 436
a 235 518
a 235 657
a 235 27
a 235 28
a 235 29
a 235 699
a 235 520
a 235 37
a 235 576
a 698 235
a 698 40
a 698 346
a 698 37
a 698 576
a 346 235
a 346 698
a 346 700
a 346 329
a 346 37
a 346 576
a 346 701
a 436 235
a 436 417
a 436 473
a 436 702
a 699 235
a 699 227
a 699 209
a 699 703
a 699 704
a 699 705
a 699 268
a 699 706
a 699 707
a 204 708
a 204 349
a 204 439
a 204 24
a 204 518
a 204 657
a 204 26
a 204 27
a 204 28
a 204 29
a 204 34
a 204 520
a 204 709
a 204 37
a 204 577
a 708 204
a 708 40
a 708 349
a 708 37
a 708 577
a 349 204
a 349 708
a 349 710
a 349 330
a 349 37
a 349 577
a 349 711
a 439 204
a 439 418
a 439 475
a 439 712
a 709 204
a 709 194
a 709 210
a 709 195
a 709 655
a 709 713
a 709 242
a 709 243
a 709 244
a 709 245
a 709 663
a 709 664
a 709 552
a 173 714
a 173 352
a 173 442
a 173 21
a 173 24
a 173 649
a 173 518
a 173 657
a 173 26
a 173 27
a 173 28
a 173 29
a 173 715
a 173 520
a 173 37
a 173 578
a 714 173
a 714 40
a 714 352
a 714 37
a 714 578
a 352 173
a 352 714
a 352 716
a 352 331
a 352 37
a 352 578
a 352 717
a 442 173
a 442 419
a 442 477
a 442 718
a 715 173
a 715 719
a 715 245
a 715 720
a 715 721
a 715 722
a 205 723
a 205 355
a 205 445
a 205 24
a 205 25
a 205 649
a 205 518
a 205 657
a 205 26
a 205 27
a 205 28
a 205 29
a 205 724
a 205 520
a 205 37
a 205 579
a 723 205
a 723 40
a 723 355
a 723 37
a 723 579
a 355 205
a 355 723
a 355 725
a 355 332
a 355 37
a 355 579
a 355 726
a 445 205
a 445 420
a 445 479
a 445 727
a 724 205
a 724 728
a 724 729
a 206 730
a 206 358
a 206 448
a 206 24
a 206 649
a 206 518
a 206 542
a 206 657
a 206 26
a 206 625
a 206 27
a 206 28
a 206 29
a 206 520
a 206 37
a 206 580
a 730 206
a 730 40
a 730 358
a 730 37
a 730 580
a 358 206
a 358 730
a 358 731
a 358 333
a 358 37
a 358 580
a 358 732
a 448 206
a 448 421
a 448 481
a 448 733
a 174 734
a 174 361
a 174 451
a 174 21
a 174 24
a 174 649
a 174 518
a 174 657
a 174 27
a 174 28
a 174 29
a 174 735
a 174 33
a 174 35
a 174 520
a 174 37
a 174 581
a 734 174
a 734 40
a 734 361
a 734 37
a 734 581
a 361 174
a 361 734
a 361 736
a 361 334
a 361 37
a 361 581
a 361 737
a 451 174
a 451 422
a 451 483
a 451 738
a 735 174
a 735 739
a 735 740
a 735 741
a 175 742
a 175 364
a 175 454
a 175 21
a 175 23
a 175 24
a 175 541
a 175 518
a 175 657
a 175 26
a 175 27
a 175 28
a 175 29
a 175 33
a 175 35
a 175 520
a 175 37
a 175 582
a 742 175
a 742 40
a 742 364
a 742 37
a 742 582
a 364 175
a 364 742
a 364 743
a 364 335
a 364 37
a 364 582
a 364 744
a 454 175
a 454 423
a 454 489
a 454 745
a 176 746
a 176 367
a 176 457
a 176 599
a 176 611
a 176 747
a 176 21
a 176 23
a 176 24
a 176 632
a 176 518
a 176 27
a 176 28
a 176 29
a 176 600
a 176 748
a 176 613
a 176 749
a 176 34
a 176 35
a 176 520
a 176 37
a 176 583
a 746 176
a 746 40
a 746 367
a 746 37
a 746 583
a 367 176
a 367 746
a 367 750
a 367 336
a 367 37
a 367 583
a 367 751
a 457 176
a 457 424
a 457 491
a 457 752
a 747 176
a 747 753
a 747 754
a 747 693
a 747 755
a 747 756
a 747 96
a 747 101
a 747 106
a 747 109
a 747 110
a 747 111
a 747 112
a 747 113
a 747 114
a 747 115
a 747 116
a 747 117
a 747 118
a 747 119
a 747 120
a 747 121
a 747 122
a 747 123
a 747 124
a 747 125
a 747 126
a 747 127
a 747 128
a 747 129
a 747 130
a 747 131
a 747 132
a 747 133
a 747 134
a 747 135
a 747 136
a 747 137
a 747 138
a 747 139
a 747 140
a 747 141
a 747 142
a 747 143
a 747 144
a 747 145
a 747 146
a 747 147
a 747 148
a 747 149
a 747 150
a 747 151
a 747 152
a 747 153
a 747 89
a 747 154
a 747 155
a 747 156
a 747 157
a 747 158
a 748 176
a 748 606
a 748 757
a 748 693
a 748 755
a 748 758
a 748 759
a 749 176
a 749 760
a 749 761
a 749 214
a 749 215
a 749 762
a 207 763
a 207 384
a 207 466
a 207 24
a 207 25
a 207 518
a 207 26
a 207 27
a 207 28
a 207 29
a 207 34
a 207 520
a 207 37
a 207 584
a 763 207
a 763 40
a 763 384
a 763 37
a 763 584
a 384 207
a 384 763
a 384 764
a 384 371
a 384 37
a 384 584
a 384 765
a 466 207
a 466 459
a 466 469
a 466 766
a 208 767
a 208 387
a 208 468
a 208 516
a 208 611
a 208 24
a 208 541
a 208 518
a 208 26
a 208 27
a 208 28
a 208 29
a 208 520
a 208 37
a 208 585
a 767 208
a 767 40
a 767 387
a 767 37
a 767 585
a 387 208
a 387 767
a 387 768
a 387 372
a 387 37
a 387 585
a 387 769
a 468 208
a 468 460
a 468 471
a 468 770
a 160 771
a 160 390
a 160 470
a 160 288
a 160 19
a 160 516
a 160 20
a 160 22
a 160 24
a 160 517
a 160 541
a 160 518
a 160 27
a 160 28
a 160 29
a 160 520
a 160 37
a 160 586
a 771 160
a 771 40
a 771 390
a 771 37
a 771 586
a 390 160
a 390 771
a 390 772
a 390 373
a 390 37
a 390 586
a 390 773
a 470 160
a 470 43
a 470 473
a 470 774
a 161 775
a 161 393
a 161 472
a 161 19
a 161 516
a 161 517
a 161 518
a 161 776
a 161 27
a 161 28
a 161 29
a 161 543
a 161 544
a 161 520
a 161 37
a 161 587
a 775 161
a 775 40
a 775 393
a 775 37
a 775 587
a 393 161
a 393 775
a 393 777
a 393 374
a 393 37
a 393 587
a 393 778
a 472 161
a 472 56
a 472 475
a 472 779
a 776 161
a 776 236
a 776 780
a 776 781
a 776 782
a 776 96
a 776 101
a 776 106
a 776 109
a 776 110
a 776 111
a 776 112
a 776 113
a 776 114
a 776 115
a 776 116
a 776 117
a 776 118
a 776 119
a 776 120
a 776 121
a 776 122
a 776 123
a 776 124
a 776 125
a 776 126
a 776 127
a 776 128
a 776 129
a 776 130
a 776 131
a 776 132
a 776 133
a 776 134
a 776 135
a 776 136
a 776 137
a 776 138
a 776 139
a 776 140
a 776 141
a 776 142
a 776 143
a 776 144
a 776 145
a 776 146
a 776 147
a 776 148
a 776 149
a 776 150
a 776 151
a 776 152
a 776 153
a 776 89
a 776 154
a 776 155
a 776 156
a 776 157
a 776 158
a 177 783
a 177 396
a 177 474
a 177 611
a 177 21
a 177 24
a 177 518
a 177 27
a 177 28
a 177 29
a 177 784
a 177 520
a 177 37
a 177 588
a 783 177
a 783 40
a 783 396
a 783 37
a 783 588
a 396 177
a 396 783
a 396 785
a 396 375
a 396 37
a 396 588
a 396 786
a 474 177
a 474 59
a 474 477
a 474 787
a 784 177
a 784 216
a 784 788
a 784 789
a 166 790
a 166 399
a 166 476
a 166 20
a 166 24
a 166 649
a 166 518
a 166 26
a 166 27
a 166 28
a 166 29
a 166 35
a 166 520
a 166 37
a 166 589
a 790 166
a 790 40
a 790 399
a 790 37
a 790 589
a 399 166
a 399 790
a 399 791
a 399 376
a 399 37
a 399 589
a 399 792
a 476 166
a 476 62
a 476 479
a 476 793
a 224 794
a 224 402
a 224 478
a 224 649
a 224 518
a 224 26
a 224 625
a 224 27
a 224 28
a 224 29
a 224 520
a 224 37
a 224 590
a 794 224
a 794 40
a 794 402
a 794 37
a 794 590
a 402 224
a 402 794
a 402 795
a 402 377
a 402 37
a 402 590
a 402 796
a 478 224
a 478 65
a 478 481
a 478 797
a 225 798
a 225 405
a 225 480
a 225 518
a 225 542
a 225 26
a 225 27
a 225 28
a 225 29
a 225 520
a 225 37
a 225 591
a 798 225
a 798 40
a 798 405
a 798 37
a 798 591
a 405 225
a 405 798
a 405 799
a 405 378
a 405 37
a 405 591
a 405 800
a 480 225
a 480 68
a 480 483
a 480 801
a 236 802
a 236 408
a 236 482
a 236 518
a 236 776
a 236 27
a 236 28
a 236 29
a 236 520
a 236 37
a 236 592
a 802 236
a 802 40
a 802 408
a 802 37
a 802 592
a 408 236
a 408 802
a 408 803
a 408 379
a 408 37
a 408 592
a 408 804
a 482 236
a 482 71
a 482 489
a 482 805
a 226 806
a 226 411
a 226 484
a 226 542
a 226 682
a 226 26
a 226 625
a 226 27
a 226 28
a 226 29
a 226 807
a 226 37
a 226 593
a 806 226
a 806 40
a 806 411
a 806 37
a 806 593
a 411 226
a 411 806
a 411 808
a 411 380
a 411 37
a 411 593
a 411 809
a 484 226
a 484 74
a 484 491
a 484 810
a 807 226
a 807 639
a 807 811
a 807 689
a 807 690
a 807 812
a 194 813
a 194 428
a 194 490
a 194 23
a 194 518
a 194 657
a 194 26
a 194 625
a 194 27
a 194 28
a 194 29
a 194 520
a 194 709
a 194 37
a 194 594
a 813 194
a 813 40
a 813 428
a 813 37
a 813 594
a 428 194
a 428 813
a 428 814
a 428 415
a 428 37
a 428 594
a 428 815
a 490 194
a 490 77
a 490 469
a 490 816
a 167 817
a 167 431
a 167 492
a 167 516
a 167 20
a 167 22
a 167 23
a 167 24
a 167 25
a 167 517
a 167 541
a 167 632
a 167 518
a 167 682
a 167 657
a 167 27
a 167 28
a 167 29
a 167 520
a 167 36
a 167 37
a 167 262
a 817 167
a 817 40
a 817 431
a 817 37
a 817 262
a 431 167
a 431 817
a 431 818
a 431 416
a 431 37
a 431 262
a 431 819
a 492 167
a 492 80
a 492 471
a 492 820
a 227 821
a 227 434
a 227 493
a 227 822
a 227 518
a 227 26
a 227 27
a 227 28
a 227 29
a 227 699
a 227 520
a 227 37
a 227 823
a 821 227
a 821 40
a 821 434
a 821 37
a 821 823
a 434 227
a 434 821
a 434 824
a 434 417
a 434 37
a 434 823
a 434 758
a 493 227
a 493 294
a 493 473
a 493 825
a 822 227
a 822 195
a 822 826
a 822 268
a 822 706
a 822 739
a 822 129
a 209 827
a 209 437
a 209 494
a 209 24
a 209 518
a 209 27
a 209 28
a 209 29
a 209 828
a 209 699
a 209 520
a 209 37
a 209 829
a 827 209
a 827 40
a 827 437
a 827 37
a 827 829
a 437 209
a 437 827
a 437 830
a 437 418
a 437 37
a 437 829
a 437 831
a 494 209
a 494 297
a 494 475
a 494 832
a 828 209
a 828 833
a 828 834
a 828 157
a 210 835
a 210 440
a 210 495
a 210 24
a 210 518
a 210 657
a 210 26
a 210 27
a 210 28
a 210 29
a 210 520
a 210 709
a 210 36
a 210 37
a 210 836
a 835 210
a 835 40
a 835 440
a 835 37
a 835 836
a 440 210
a 440 835
a 440 837
a 440 419
a 440 37
a 440 836
a 440 838
a 495 210
a 495 300
a 495 477
a 495 839
a 183 840
a 183 443
a 183 496
a 183 22
a 183 24
a 183 25
a 183 649
a 183 27
a 183 28
a 183 29
a 183 35
a 183 37
a 183 841
a 840 183
a 840 40
a 840 443
a 840 37
a 840 841
a 443 183
a 443 840
a 443 842
a 443 420
a 443 37
a 443 841
a 443 843
a 496 183
a 496 303
a 496 479
a 496 844
a 195 845
a 195 446
a 195 497
a 195 846
a 195 822
a 195 847
a 195 23
a 195 24
a 195 25
a 195 649
a 195 542
a 195 657
a 195 26
a 195 848
a 195 27
a 195 28
a 195 29
a 195 849
a 195 850
a 195 33
a 195 34
a 195 35
a 195 545
a 195 709
a 195 37
a 195 851
a 845 195
a 845 40
a 845 446
a 845 37
a 845 851
a 446 195
a 446 845
a 446 852
a 446 421
a 446 37
a 446 851
a 446 853
a 497 195
a 497 306
a 497 481
a 497 854
a 846 195
a 846 855
a 846 856
a 846 857
a 846 858
a 846 859
a 846 119
a 847 195
a 847 196
a 847 860
a 847 789
a 847 861
a 847 862
a 847 133
a 848 195
a 848 196
a 848 863
a 848 864
a 848 96
a 848 101
a 848 106
a 848 109
a 848 110
a 848 111
a 848 112
a 848 113
a 848 114
a 848 115
a 848 116
a 848 117
a 848 118
a 848 119
a 848 120
a 848 121
a 848 122
a 848 123
a 848 124
a 848 125
a 848 126
a 848 127
a 848 128
a 848 129
a 848 130
a 848 131
a 848 132
a 848 133
a 848 134
a 848 135
a 848 136
a 848 137
a 848 138
a 848 139
a 848 140
a 848 141
a 848 142
a 848 143
a 848 144
a 848 145
a 848 146
a 848 147
a 848 148
a 848 149
a 848 150
a 848 151
a 848 152
a 848 153
a 848 89
a 848 154
a 848 155
a 848 156
a 848 157
a 848 158
a 849 195
a 849 865
a 849 857
a 849 858
a 849 46
a 850 195
a 850 866
a 850 789
a 850 861
a 850 867
a 184 868
a 184 449
a 184 498
a 184 22
a 184 24
a 184 27
a 184 28
a 184 869
a 184 35
a 184 37
a 184 870
a 868 184
a 868 40
a 868 449
a 868 37
a 868 870
a 449 184
a 449 868
a 449 871
a 449 422
a 449 37
a 449 870
a 449 872
a 498 184
a 498 309
a 498 483
a 498 873
a 869 184
a 869 756
a 869 874
a 869 875
a 869 188
a 869 189
a 869 50
a 196 876
a 196 452
a 196 499
a 196 847
a 196 23
a 196 24
a 196 542
a 196 848
a 196 27
a 196 28
a 196 29
a 196 37
a 196 877
a 876 196
a 876 452
a 452 196
a 452 876
a 452 878
a 452 423
a 452 877
a 452 879
a 499 196
a 499 312
a 499 489
a 499 880
a 237 881
a 237 455
a 237 500
a 237 27
a 237 28
a 237 882
a 237 37
a 237 883
a 881 237
a 881 455
a 881 37
a 881 883
a 455 237
a 455 881
a 455 884
a 455 424
a 455 37
a 455 883
a 455 885
a 500 237
a 500 315
a 500 491
a 500 886
a 882 237
a 882 887
a 882 888
a 889 890
a 889 464
a 889 505
a 890 889
a 890 40
a 890 464
a 890 37
a 890 891
a 464 889
a 464 890
a 464 892
a 464 459
a 464 37
a 464 759
a 505 889
a 505 318
a 505 469
a 505 893
a 894 895
a 894 92
a 894 506
a 895 894
a 895 40
a 895 92
a 895 37
a 895 896
a 92 894
a 92 895
a 92 897
a 92 460
a 92 37
a 92 14
a 506 894
a 506 321
a 506 471
a 506 898
a 40 2
a 40 277
a 40 326
a 40 370
a 40 414
a 40 458
a 40 485
a 40 501
a 40 515
a 40 540
a 40 598
a 40 610
a 40 624
a 40 631
a 40 641
a 40 648
a 40 656
a 40 666
a 40 670
a 40 677
a 40 681
a 40 694
a 40 698
a 40 708
a 40 714
a 40 723
a 40 730
a 40 734
a 40 742
a 40 746
a 40 763
a 40 767
a 40 771
a 40 775
a 40 783
a 40 790
a 40 794
a 40 798
a 40 802
a 40 806
a 40 813
a 40 817
a 40 821
a 40 827
a 40 835
a 40 840
a 40 845
a 40 868
a 40 890
a 40 895
a 40 899
a 40 900
a 40 901
a 41 3
a 41 902
a 41 91
a 41 94
a 41 99
a 41 104
a 41 324
a 41 903
a 41 164
a 41 605
a 41 758
a 41 904
a 291 54
a 291 905
a 291 906
a 291 907
a 291 908
a 291 909
a 291 755
a 291 180
a 291 858
a 291 910
a 291 911
a 291 189
a 291 912
a 291 913
a 291 914
a 291 915
a 291 916
a 291 917
a 291 706
a 291 918
a 291 721
a 291 919
a 291 861
a 291 920
a 291 200
a 291 215
a 291 220
a 291 921
a 291 922
a 291 553
a 291 923
a 291 271
a 291 536
a 291 558
a 291 924
a 291 690
a 291 758
a 291 904
a 339 57
a 339 242
a 339 664
a 339 232
a 339 261
a 339 758
a 339 904
a 383 60
a 383 243
a 383 925
a 383 926
a 383 927
a 383 928
a 383 538
a 383 256
a 383 258
a 427 63
a 427 562
a 427 823
a 463 66
a 463 563
a 463 829
a 488 69
a 488 37
a 488 836
a 504 72
a 504 38
a 504 841
a 522 75
a 522 289
a 522 851
a 547 78
a 547 337
a 547 870
a 601 292
a 601 381
a 601 877
a 614 295
a 614 425
a 614 883
a 626 298
a 626 461
a 626 891
a 634 301
a 634 486
a 634 896
a 643 304
a 643 502
a 643 39
a 650 307
a 650 521
a 650 290
a 658 310
a 658 546
a 658 338
a 667 313
a 667 564
a 667 382
a 672 316
a 672 565
a 672 426
a 678 319
a 678 566
a 678 462
a 684 340
a 684 567
a 684 487
a 695 343
a 695 568
a 695 503
a 700 346
a 700 569
a 700 523
a 710 349
a 710 570
a 710 548
a 716 352
a 716 571
a 716 602
a 725 355
a 725 572
a 725 615
a 731 358
a 731 573
a 731 627
a 736 361
a 736 574
a 736 635
a 743 364
a 743 575
a 743 644
a 750 367
a 750 576
a 750 651
a 764 384
a 764 577
a 764 659
a 768 387
a 768 578
a 768 668
a 772 390
a 772 579
a 772 673
a 777 393
a 777 580
a 777 679
a 785 396
a 785 581
a 785 685
a 791 399
a 791 582
a 791 696
a 795 402
a 795 583
a 795 701
a 799 405
a 799 584
a 799 711
a 803 408
a 803 585
a 803 717
a 808 411
a 808 586
a 808 726
a 814 428
a 814 587
a 814 732
a 818 431
a 818 588
a 818 737
a 824 434
a 824 589
a 824 744
a 830 437
a 830 590
a 830 751
a 837 440
a 837 591
a 837 765
a 842 443
a 842 592
a 842 769
a 852 446
a 852 593
a 852 773
a 871 449
a 871 594
a 871 778
a 878 452
a 878 786
a 884 455
a 884 792
a 892 464
a 892 796
a 897 92
a 897 800
a 42 4
a 42 804
a 55 5
a 55 809
a 58 6
a 58 815
a 61 7
a 61 262
a 61 819
a 64 8
a 64 91
a 64 562
a 67 9
a 67 94
a 67 563
a 70 10
a 70 99
a 70 37
a 73 11
a 73 104
a 73 38
a 76 12
a 76 324
a 76 289
a 79 13
a 79 903
a 79 337
a 293 278
a 293 164
a 293 381
a 296 279
a 296 605
a 296 425
a 299 280
a 299 906
a 299 461
a 302 281
a 302 907
a 302 486
a 305 282
a 305 908
a 305 502
a 308 283
a 308 909
a 308 521
a 311 284
a 311 755
a 311 546
a 314 285
a 314 180
a 314 564
a 317 286
a 317 858
a 317 565
a 320 287
a 320 910
a 320 566
a 341 327
a 341 911
a 341 567
a 344 328
a 344 189
a 344 568
a 347 329
a 347 912
a 347 569
a 350 330
a 350 913
a 350 570
a 353 331
a 353 914
a 353 571
a 356 332
a 356 915
a 356 572
a 359 333
a 359 916
a 359 573
a 362 334
a 362 917
a 362 574
a 365 335
a 365 706
a 365 575
a 368 336
a 368 918
a 368 576
a 385 371
a 385 721
a 385 577
a 388 372
a 388 919
a 388 578
a 391 373
a 391 861
a 391 579
a 394 374
a 394 920
a 394 580
a 397 375
a 397 200
a 397 581
a 400 376
a 400 215
a 400 582
a 403 377
a 403 220
a 403 583
a 406 378
a 406 921
a 406 584
a 409 379
a 409 922
a 409 585
a 412 380
a 412 553
a 412 586
a 429 415
a 429 923
a 429 587
a 432 416
a 432 271
a 432 588
a 435 417
a 435 536
a 435 589
a 438 418
a 438 558
a 438 590
a 441 419
a 441 924
a 441 591
a 444 420
a 444 690
a 444 592
a 447 421
a 447 664
a 447 593
a 450 422
a 450 232
a 450 594
a 453 423
a 453 925
a 456 424
a 456 926
a 465 459
a 465 927
a 467 460
a 467 928
a 469 43
a 469 294
a 469 342
a 469 386
a 469 430
a 469 466
a 469 490
a 469 505
a 469 90
a 469 929
a 469 158
a 471 56
a 471 297
a 471 345
a 471 389
a 471 433
a 471 468
a 471 492
a 471 506
a 471 93
a 471 239
a 471 44
a 471 608
a 473 59
a 473 300
a 473 348
a 473 392
a 473 436
a 473 470
a 473 493
a 473 507
a 473 98
a 473 930
a 473 45
a 473 608
a 475 62
a 475 303
a 475 351
a 475 395
a 475 439
a 475 472
a 475 494
a 475 508
a 475 103
a 475 931
a 475 46
a 475 608
a 477 65
a 477 306
a 477 354
a 477 398
a 477 442
a 477 474
a 477 495
a 477 509
a 477 323
a 477 932
a 477 47
a 477 608
a 479 68
a 479 309
a 479 357
a 479 401
a 479 445
a 479 476
a 479 496
a 479 510
a 479 107
a 479 933
a 479 48
a 479 608
a 481 71
a 481 312
a 481 360
a 481 404
a 481 448
a 481 478
a 481 497
a 481 511
a 481 163
a 481 934
a 481 49
a 483 74
a 483 315
a 483 363
a 483 407
a 483 451
a 483 480
a 483 498
a 483 512
a 483 604
a 483 935
a 483 50
a 483 608
a 489 77
a 489 318
a 489 366
a 489 410
a 489 454
a 489 482
a 489 499
a 489 513
a 489 526
a 489 936
a 489 51
a 489 608
a 491 80
a 491 321
a 491 369
a 491 413
a 491 457
a 491 484
a 491 500
a 491 514
a 491 618
a 491 937
a 491 52
a 491 608
a 507 342
a 507 473
a 507 242
a 507 938
a 507 939
a 507 940
a 507 941
a 507 942
a 507 943
a 507 944
a 507 945
a 508 345
a 508 475
a 508 243
a 508 946
a 508 947
a 508 948
a 508 949
a 508 950
a 508 951
a 508 952
a 508 953
a 508 954
a 508 955
a 508 956
a 508 957
a 508 958
a 508 959
a 508 960
a 508 961
a 508 962
a 508 963
a 508 964
a 508 965
a 508 966
a 508 967
a 508 968
a 508 969
a 508 970
a 508 971
a 508 972
a 508 973
a 508 974
a 508 975
a 508 976
a 508 977
a 508 978
a 508 979
a 509 348
a 509 477
a 509 244
a 509 980
a 509 981
a 510 351
a 510 479
a 510 245
a 510 982
a 510 983
a 510 984
a 510 985
a 510 986
a 511 354
a 511 481
a 511 987
a 511 254
a 512 357
a 512 483
a 512 988
a 512 989
a 513 360
a 513 489
a 513 990
a 513 991
a 514 363
a 514 491
a 514 102
a 514 992
a 514 47
a 514 104
a 524 366
a 524 993
a 524 322
a 524 834
a 524 48
a 524 324
a 993 524
a 993 169
a 993 994
a 993 53
a 993 608
a 549 369
a 549 995
a 549 996
a 549 929
a 995 549
a 995 997
a 995 998
a 995 676
a 995 608
a 603 386
a 603 999
a 603 162
a 603 96
a 603 50
a 603 164
a 999 603
a 999 754
a 999 1000
a 999 1001
a 999 608
a 616 389
a 616 1002
a 616 1003
a 616 101
a 1002 616
a 1002 178
a 1002 1004
a 1002 693
a 1002 608
a 628 392
a 628 1005
a 628 525
a 628 106
a 628 52
a 628 906
a 1005 628
a 1005 856
a 1005 1006
a 1005 179
a 1005 608
a 636 395
a 636 1007
a 636 617
a 636 109
a 636 53
a 636 907
a 1007 636
a 1007 621
a 1007 1008
a 1007 857
a 1007 608
a 645 398
a 645 1009
a 645 168
a 645 110
a 645 676
a 645 908
a 1009 645
a 1009 1010
a 1009 1011
a 1009 1012
a 1009 608
a 652 401
a 652 1013
a 652 1014
a 652 111
a 652 1001
a 652 909
a 1013 652
a 1013 187
a 1013 1015
a 1013 707
a 1013 608
a 660 404
a 660 1016
a 660 753
a 660 112
a 660 693
a 660 755
a 1016 660
a 1016 1017
a 1016 1018
a 1016 188
a 1016 608
a 669 407
a 669 1019
a 669 1020
a 669 113
a 1019 669
a 1019 1021
a 1019 186
a 1019 722
a 1019 608
a 674 410
a 674 1022
a 674 855
a 674 114
a 1022 674
a 1022 1023
a 1022 1024
a 1022 729
a 1022 608
a 680 413
a 680 1025
a 680 620
a 680 115
a 680 1012
a 680 910
a 1025 680
a 1025 1026
a 1025 1027
a 1025 867
a 1025 608
a 686 430
a 686 1028
a 686 1029
a 686 116
a 686 707
a 686 911
a 1028 686
a 1028 1030
a 1028 1031
a 1028 741
a 1028 608
a 697 433
a 697 1032
a 697 185
a 697 117
a 697 188
a 697 189
a 1032 697
a 1032 1033
a 1032 1034
a 1032 265
a 1032 608
a 702 436
a 702 1035
a 702 1036
a 702 118
a 702 722
a 702 912
a 1035 702
a 1035 826
a 1035 1037
a 1035 762
a 712 439
a 712 1038
a 712 1039
a 712 119
a 712 729
a 712 913
a 1038 712
a 1038 1040
a 1038 1041
a 1038 268
a 1038 608
a 718 442
a 718 1042
a 718 1043
a 718 120
a 718 867
a 718 914
a 1042 718
a 1042 1044
a 1042 1045
a 1042 1046
a 1042 608
a 727 445
a 727 1047
a 727 1048
a 727 121
a 727 741
a 727 915
a 1047 727
a 1047 1049
a 1047 1050
a 1047 720
a 1047 608
a 733 448
a 733 1051
a 733 1052
a 733 122
a 733 265
a 733 916
a 1051 733
a 1051 860
a 1051 1053
a 1051 596
a 1051 608
a 738 451
a 738 1054
a 738 1055
a 738 123
a 1054 738
a 1054 1056
a 1054 1057
a 1054 789
a 1054 608
a 745 454
a 745 1058
a 745 1059
a 745 124
a 745 268
a 745 706
a 1058 745
a 1058 198
a 1058 1060
a 1058 272
a 1058 608
a 752 457
a 752 1061
a 752 1062
a 752 125
a 752 1046
a 752 918
a 1061 752
a 1061 213
a 1061 1063
a 1061 199
a 1061 608
a 766 466
a 766 1064
a 766 1065
a 766 126
a 1064 766
a 1064 218
a 1064 1066
a 1064 214
a 1064 608
a 770 468
a 770 1067
a 770 1068
a 770 127
a 1067 770
a 1067 1069
a 1067 212
a 1067 219
a 1067 608
a 774 470
a 774 1070
a 774 1071
a 774 128
a 1070 774
a 1070 530
a 1070 1072
a 1070 1073
a 1070 608
a 779 472
a 779 1074
a 779 1075
a 779 129
a 779 272
a 779 920
a 1074 779
a 1074 551
a 1074 1076
a 1074 812
a 1074 608
a 787 474
a 787 1077
a 787 197
a 787 130
a 787 199
a 787 200
a 1077 787
a 1077 638
a 1077 529
a 1077 552
a 1077 608
a 793 476
a 793 1078
a 793 211
a 793 131
a 793 214
a 793 215
a 1078 793
a 1078 654
a 1078 1079
a 1078 276
a 1078 608
a 797 478
a 797 1080
a 797 217
a 797 132
a 797 219
a 797 220
a 1080 797
a 1080 534
a 1080 1081
a 1080 270
a 1080 608
a 801 480
a 801 1082
a 801 1083
a 801 133
a 801 1073
a 801 921
a 1082 801
a 1082 556
a 1082 1084
a 1082 535
a 1082 608
a 805 482
a 805 1085
a 805 528
a 805 134
a 805 812
a 805 922
a 1085 805
a 1085 781
a 1085 533
a 1085 557
a 1085 608
a 810 484
a 810 1086
a 810 550
a 810 135
a 810 552
a 810 553
a 1086 810
a 1086 688
a 1086 1087
a 1086 1088
a 816 490
a 816 1089
a 816 637
a 816 136
a 816 276
a 816 923
a 1089 816
a 1089 662
a 1089 1090
a 1089 689
a 1089 608
a 820 492
a 820 1091
a 820 653
a 820 137
a 820 270
a 820 271
a 1091 820
a 1091 230
a 1091 1092
a 1091 663
a 1091 608
a 825 493
a 825 1093
a 825 532
a 825 138
a 1093 825
a 1093 863
a 1093 1094
a 1093 231
a 1093 608
a 832 494
a 832 1095
a 832 555
a 832 139
a 832 557
a 832 558
a 1095 832
a 1095 629
a 1095 229
a 1095 888
a 839 495
a 839 1096
a 839 780
a 839 140
a 1096 839
a 1096 241
a 1096 1097
a 1096 1098
a 1096 608
a 844 496
a 844 1099
a 844 687
a 844 141
a 844 689
a 844 690
a 1099 844
a 1099 249
a 1099 1100
a 1099 1101
a 854 497
a 854 1102
a 854 661
a 854 142
a 854 663
a 854 664
a 1102 854
a 1102 1103
a 1102 240
a 1102 1104
a 873 498
a 873 1105
a 873 228
a 873 143
a 873 231
a 873 232
a 1105 873
a 1105 253
a 1105 248
a 1105 1106
a 880 499
a 880 1107
a 880 1108
a 880 144
a 1107 880
a 1107 1109
a 1107 1110
a 1107 1111
a 886 500
a 886 1112
a 886 1113
a 886 145
a 1112 886
a 1112 1114
a 1112 252
a 1112 1115
a 893 505
a 893 1116
a 893 238
a 893 146
a 1116 893
a 1116 1117
a 1116 1118
a 1116 1119
a 1116 608
a 898 506
a 898 1120
a 898 247
a 898 147
a 1120 898
a 1120 833
a 1120 1121
a 1120 1122
a 987 511
a 987 1123
a 987 148
a 988 512
a 988 251
a 988 149
a 990 513
a 990 1124
a 990 150
a 102 514
a 102 17
a 102 1125
a 102 151
a 322 524
a 322 288
a 322 1126
a 322 152
a 996 549
a 996 1127
a 996 153
a 162 603
a 162 19
a 162 1128
a 162 254
a 162 44
a 162 91
a 1003 616
a 1003 1129
a 1003 989
a 1003 45
a 1003 94
a 525 628
a 525 516
a 525 1130
a 525 991
a 525 46
a 525 99
a 617 636
a 617 611
a 617 259
a 617 992
a 617 47
a 617 104
a 168 645
a 168 20
a 168 560
a 168 834
a 168 48
a 168 324
a 1014 652
a 1014 1131
a 1014 1132
a 1014 929
a 1014 49
a 1014 903
a 1131 1014
a 1131 997
a 1131 1133
a 1131 96
a 1131 101
a 1131 106
a 1131 109
a 1131 110
a 1131 111
a 1131 112
a 1131 113
a 1131 114
a 1131 115
a 1131 116
a 1131 117
a 1131 118
a 1131 119
a 1131 120
a 1131 121
a 1131 122
a 1131 123
a 1131 124
a 1131 125
a 1131 126
a 1131 127
a 1131 128
a 1131 129
a 1131 130
a 1131 131
a 1131 132
a 1131 133
a 1131 134
a 1131 135
a 1131 136
a 1131 137
a 1131 138
a 1131 139
a 1131 140
a 1131 141
a 1131 142
a 1131 143
a 1131 144
a 1131 145
a 1131 146
a 1131 147
a 1131 148
a 1131 149
a 1131 150
a 1131 151
a 1131 152
a 1131 153
a 1131 89
a 1131 154
a 1131 155
a 1131 156
a 1131 157
a 1131 158
a 753 660
a 753 747
a 753 95
a 753 96
a 753 50
a 753 164
a 1020 669
a 1020 100
a 1020 101
a 1020 51
a 1020 605
a 855 674
a 855 846
a 855 105
a 855 106
a 855 52
a 855 906
a 620 680
a 620 612
a 620 325
a 620 109
a 620 53
a 620 907
a 1029 686
a 1029 1134
a 1029 108
a 1029 110
a 1029 676
a 1029 908
a 1134 1029
a 1134 1010
a 1134 1135
a 1134 96
a 1134 101
a 1134 106
a 1134 109
a 1134 110
a 1134 111
a 1134 112
a 1134 113
a 1134 114
a 1134 115
a 1134 116
a 1134 117
a 1134 118
a 1134 119
a 1134 120
a 1134 121
a 1134 122
a 1134 123
a 1134 124
a 1134 125
a 1134 126
a 1134 127
a 1134 128
a 1134 129
a 1134 130
a 1134 131
a 1134 132
a 1134 133
a 1134 134
a 1134 135
a 1134 136
a 1134 137
a 1134 138
a 1134 139
a 1134 140
a 1134 141
a 1134 142
a 1134 143
a 1134 144
a 1134 145
a 1134 146
a 1134 147
a 1134 148
a 1134 149
a 1134 150
a 1134 151
a 1134 152
a 1134 153
a 1134 89
a 1134 154
a 1134 155
a 1134 156
a 1134 157
a 1134 158
a 185 697
a 185 22
a 185 165
a 185 111
a 185 1001
a 185 909
a 1036 702
a 1036 1136
a 1036 606
a 1036 112
a 1036 693
a 1036 755
a 1136 1036
a 1136 1017
a 1136 1137
a 1136 96
a 1136 101
a 1136 106
a 1136 109
a 1136 110
a 1136 111
a 1136 112
a 1136 113
a 1136 114
a 1136 115
a 1136 116
a 1136 117
a 1136 118
a 1136 119
a 1136 120
a 1136 121
a 1136 122
a 1136 123
a 1136 124
a 1136 125
a 1136 126
a 1136 127
a 1136 128
a 1136 129
a 1136 130
a 1136 131
a 1136 132
a 1136 133
a 1136 134
a 1136 135
a 1136 136
a 1136 137
a 1136 138
a 1136 139
a 1136 140
a 1136 141
a 1136 142
a 1136 143
a 1136 144
a 1136 145
a 1136 146
a 1136 147
a 1136 148
a 1136 149
a 1136 150
a 1136 151
a 1136 152
a 1136 153
a 1136 89
a 1136 154
a 1136 155
a 1136 156
a 1136 157
a 1136 158
a 1039 712
a 1039 1138
a 1039 527
a 1039 113
a 1039 179
a 1039 180
a 1138 1039
a 1138 1021
a 1138 703
a 1138 96
a 1138 101
a 1138 106
a 1138 109
a 1138 110
a 1138 111
a 1138 112
a 1138 113
a 1138 114
a 1138 115
a 1138 116
a 1138 117
a 1138 118
a 1138 119
a 1138 120
a 1138 121
a 1138 122
a 1138 123
a 1138 124
a 1138 125
a 1138 126
a 1138 127
a 1138 128
a 1138 129
a 1138 130
a 1138 131
a 1138 132
a 1138 133
a 1138 134
a 1138 135
a 1138 136
a 1138 137
a 1138 138
a 1138 139
a 1138 140
a 1138 141
a 1138 142
a 1138 143
a 1138 144
a 1138 145
a 1138 146
a 1138 147
a 1138 148
a 1138 149
a 1138 150
a 1138 151
a 1138 152
a 1138 153
a 1138 89
a 1138 154
a 1138 155
a 1138 156
a 1138 157
a 1138 158
a 1043 718
a 1043 1139
a 1043 619
a 1043 114
a 1043 857
a 1043 858
a 1139 1043
a 1139 1023
a 1139 1140
a 1139 96
a 1139 101
a 1139 106
a 1139 109
a 1139 110
a 1139 111
a 1139 112
a 1139 113
a 1139 114
a 1139 115
a 1139 116
a 1139 117
a 1139 118
a 1139 119
a 1139 120
a 1139 121
a 1139 122
a 1139 123
a 1139 124
a 1139 125
a 1139 126
a 1139 127
a 1139 128
a 1139 129
a 1139 130
a 1139 131
a 1139 132
a 1139 133
a 1139 134
a 1139 135
a 1139 136
a 1139 137
a 1139 138
a 1139 139
a 1139 140
a 1139 141
a 1139 142
a 1139 143
a 1139 144
a 1139 145
a 1139 146
a 1139 147
a 1139 148
a 1139 149
a 1139 150
a 1139 151
a 1139 152
a 1139 153
a 1139 89
a 1139 154
a 1139 155
a 1139 156
a 1139 157
a 1139 158
a 1048 727
a 1048 1141
a 1048 170
a 1048 115
a 1048 1012
a 1048 910
a 1141 1048
a 1141 1026
a 1141 1142
a 1141 96
a 1141 101
a 1141 106
a 1141 109
a 1141 110
a 1141 111
a 1141 112
a 1141 113
a 1141 114
a 1141 115
a 1141 116
a 1141 117
a 1141 118
a 1141 119
a 1141 120
a 1141 121
a 1141 122
a 1141 123
a 1141 124
a 1141 125
a 1141 126
a 1141 127
a 1141 128
a 1141 129
a 1141 130
a 1141 131
a 1141 132
a 1141 133
a 1141 134
a 1141 135
a 1141 136
a 1141 137
a 1141 138
a 1141 139
a 1141 140
a 1141 141
a 1141 142
a 1141 143
a 1141 144
a 1141 145
a 1141 146
a 1141 147
a 1141 148
a 1141 149
a 1141 150
a 1141 151
a 1141 152
a 1141 153
a 1141 89
a 1141 154
a 1141 155
a 1141 156
a 1141 157
a 1141 158
a 1052 733
a 1052 1143
a 1052 1133
a 1052 116
a 1052 707
a 1052 911
a 1143 1052
a 1143 1030
a 1143 1144
a 1143 96
a 1143 101
a 1143 106
a 1143 109
a 1143 110
a 1143 111
a 1143 112
a 1143 113
a 1143 114
a 1143 115
a 1143 116
a 1143 117
a 1143 118
a 1143 119
a 1143 120
a 1143 121
a 1143 122
a 1143 123
a 1143 124
a 1143 125
a 1143 126
a 1143 127
a 1143 128
a 1143 129
a 1143 130
a 1143 131
a 1143 132
a 1143 133
a 1143 134
a 1143 135
a 1143 136
a 1143 137
a 1143 138
a 1143 139
a 1143 140
a 1143 141
a 1143 142
a 1143 143
a 1143 144
a 1143 145
a 1143 146
a 1143 147
a 1143 148
a 1143 149
a 1143 150
a 1143 151
a 1143 152
a 1143 153
a 1143 89
a 1143 154
a 1143 155
a 1143 156
a 1143 157
a 1143 158
a 1055 738
a 1055 756
a 1055 117
a 1055 188
a 1055 189
a 1059 745
a 1059 181
a 1059 118
a 1059 722
a 1059 912
a 1062 752
a 1062 1145
a 1062 859
a 1062 119
a 1062 729
a 1062 913
a 1145 1062
a 1145 1040
a 1145 242
a 1145 243
a 1145 244
a 1145 245
a 1145 1046
a 1145 918
a 1145 263
a 1145 96
a 1145 101
a 1145 106
a 1145 109
a 1145 110
a 1145 111
a 1145 112
a 1145 113
a 1145 114
a 1145 115
a 1145 116
a 1145 117
a 1145 118
a 1145 119
a 1145 120
a 1145 121
a 1145 122
a 1145 123
a 1145 124
a 1145 125
a 1145 126
a 1145 127
a 1145 128
a 1145 129
a 1145 130
a 1145 131
a 1145 132
a 1145 133
a 1145 134
a 1145 135
a 1145 136
a 1145 137
a 1145 138
a 1145 139
a 1145 140
a 1145 141
a 1145 142
a 1145 143
a 1145 144
a 1145 145
a 1145 146
a 1145 147
a 1145 148
a 1145 149
a 1145 150
a 1145 151
a 1145 152
a 1145 153
a 1145 89
a 1145 154
a 1145 155
a 1145 156
a 1145 157
a 1145 158
a 1065 766
a 1065 622
a 1065 120
a 1065 867
a 1065 914
a 1068 770
a 1068 1135
a 1068 121
a 1068 741
a 1068 915
a 1071 774
a 1071 190
a 1071 122
a 1071 265
a 1071 916
a 1075 779
a 1075 1146
a 1075 1137
a 1075 123
a 1075 762
a 1075 917
a 1146 1075
a 1146 1056
a 1146 1147
a 1146 134
a 197 787
a 197 23
a 197 703
a 197 124
a 211 793
a 211 24
a 211 1140
a 211 125
a 211 1046
a 211 918
a 217 797
a 217 25
a 217 1142
a 217 126
a 217 720
a 217 721
a 1083 801
a 1083 1148
a 1083 1144
a 1083 127
a 1083 596
a 1083 919
a 1148 1083
a 1148 158
a 1148 1076
a 1148 1069
a 1148 1149
a 1148 96
a 1148 101
a 1148 106
a 1148 109
a 1148 110
a 1148 111
a 1148 112
a 1148 113
a 1148 114
a 1148 115
a 1148 116
a 1148 117
a 1148 118
a 1148 119
a 1148 120
a 1148 121
a 1148 122
a 1148 123
a 1148 124
a 1148 125
a 1148 126
a 1148 127
a 1148 128
a 1148 129
a 1148 130
a 1148 131
a 1148 132
a 1148 133
a 1148 134
a 1148 135
a 1148 136
a 1148 137
a 1148 138
a 1148 139
a 1148 140
a 1148 141
a 1148 142
a 1148 143
a 1148 144
a 1148 145
a 1148 146
a 1148 147
a 1148 148
a 1148 149
a 1148 150
a 1148 151
a 1148 152
a 1148 153
a 1148 89
a 1148 154
a 1148 155
a 1148 156
a 1148 157
a 528 805
a 528 517
a 528 1150
a 528 128
a 528 789
a 528 861
a 550 810
a 550 541
a 550 739
a 550 129
a 550 272
a 550 920
a 637 816
a 637 632
a 637 263
a 637 130
a 637 199
a 637 200
a 653 820
a 653 649
a 653 760
a 653 131
a 653 214
a 653 215
a 532 825
a 532 518
a 532 266
a 532 132
a 532 219
a 532 220
a 555 832
a 555 542
a 555 862
a 555 133
a 555 1073
a 555 921
a 780 839
a 780 776
a 780 1147
a 780 134
a 780 812
a 780 922
a 687 844
a 687 682
a 687 201
a 687 135
a 687 552
a 687 553
a 661 854
a 661 657
a 661 216
a 661 136
a 661 276
a 661 923
a 228 873
a 228 26
a 228 221
a 228 137
a 228 270
a 228 271
a 1108 880
a 1108 1149
a 1108 138
a 1108 535
a 1108 536
a 1113 886
a 1113 531
a 1113 139
a 1113 557
a 1113 558
a 238 893
a 238 27
a 238 554
a 238 140
a 238 1088
a 238 924
a 247 898
a 247 28
a 247 639
a 247 141
a 247 689
a 247 690
a 1123 987
a 1123 655
a 1123 142
a 1123 663
a 1123 664
a 251 988
a 251 29
a 251 273
a 251 143
a 251 231
a 251 232
a 1124 990
a 1124 1151
a 1124 559
a 1124 144
a 1124 888
a 1124 925
a 1151 1124
a 1151 1109
a 1151 989
a 1151 96
a 1151 101
a 1151 106
a 1151 109
a 1151 110
a 1151 111
a 1151 112
a 1151 113
a 1151 114
a 1151 115
a 1151 116
a 1151 117
a 1151 118
a 1151 119
a 1151 120
a 1151 121
a 1151 122
a 1151 123
a 1151 124
a 1151 125
a 1151 126
a 1151 127
a 1151 128
a 1151 129
a 1151 130
a 1151 131
a 1151 132
a 1151 133
a 1151 134
a 1151 135
a 1151 136
a 1151 137
a 1151 138
a 1151 139
a 1151 140
a 1151 141
a 1151 142
a 1151 143
a 1151 144
a 1151 145
a 1151 146
a 1151 147
a 1151 148
a 1151 149
a 1151 150
a 1151 151
a 1151 152
a 1151 153
a 1151 89
a 1151 154
a 1151 155
a 1151 156
a 1151 157
a 1151 158
a 1125 102
a 1125 782
a 1125 145
a 1125 1098
a 1125 926
a 1126 322
a 1126 691
a 1126 146
a 1126 1101
a 1126 927
a 1127 996
a 1127 665
a 1127 147
a 1127 1104
a 1127 928
a 1128 162
a 1128 233
a 1128 148
a 1128 1106
a 1128 538
a 1129 1003
a 1129 864
a 1129 149
a 1129 1111
a 1129 256
a 1130 525
a 1130 630
a 1130 150
a 1130 1115
a 1130 258
a 259 617
a 259 32
a 259 246
a 259 151
a 259 1119
a 259 261
a 560 168
a 560 543
a 560 250
a 560 152
a 560 1122
a 560 562
a 1132 1014
a 1132 901
a 1132 1152
a 1132 153
a 1132 900
a 1132 563
a 901 1132
a 901 1153
a 901 40
a 95 753
a 95 642
a 95 44
a 95 15
a 100 1020
a 100 45
a 100 16
a 105 855
a 105 1154
a 105 46
a 105 17
a 1154 105
a 1154 1155
a 1154 609
a 325 620
a 325 1156
a 325 47
a 325 104
a 325 288
a 1156 325
a 1156 1157
a 1156 833
a 1156 1158
a 1156 1159
a 108 1029
a 108 1160
a 108 48
a 108 324
a 108 18
a 1160 108
a 1160 1161
a 1160 759
a 1160 904
a 165 185
a 165 1162
a 165 49
a 165 19
a 1162 165
a 1162 1163
a 1162 96
a 1162 101
a 1162 106
a 1162 109
a 1162 110
a 1162 111
a 1162 112
a 1162 113
a 1162 114
a 1162 115
a 1162 116
a 1162 117
a 1162 118
a 1162 119
a 1162 120
a 1162 121
a 1162 122
a 1162 123
a 1162 124
a 1162 125
a 1162 126
a 1162 127
a 1162 128
a 1162 129
a 1162 130
a 1162 131
a 1162 132
a 1162 133
a 1162 134
a 1162 135
a 1162 136
a 1162 137
a 1162 138
a 1162 139
a 1162 140
a 1162 141
a 1162 142
a 1162 143
a 1162 144
a 1162 145
a 1162 146
a 1162 147
a 1162 148
a 1162 149
a 1162 150
a 1162 151
a 1162 152
a 1162 153
a 1162 89
a 1162 154
a 1162 155
a 1162 156
a 1162 157
a 1162 158
a 1162 833
a 606 1036
a 606 748
a 606 50
a 606 164
a 606 599
a 527 1039
a 527 51
a 527 516
a 619 1043
a 619 52
a 619 906
a 619 611
a 170 1048
a 170 633
a 170 53
a 170 907
a 170 20
a 1133 1052
a 1133 1164
a 1133 676
a 1133 908
a 1133 1131
a 1164 1133
a 1164 1165
a 1164 49
a 756 1055
a 756 869
a 756 1001
a 756 909
a 756 747
a 181 1059
a 181 1166
a 181 693
a 181 755
a 181 21
a 1166 181
a 1166 1167
a 1166 52
a 859 1062
a 859 1168
a 859 179
a 859 846
a 1168 859
a 1168 1169
a 1168 53
a 622 1065
a 622 671
a 622 857
a 622 612
a 1135 1068
a 1135 1170
a 1135 1012
a 1135 910
a 1135 1134
a 1170 1135
a 1170 1171
a 1170 1001
a 190 1071
a 190 683
a 190 707
a 190 911
a 190 22
a 1137 1075
a 1137 188
a 1137 189
a 1137 1136
a 703 197
a 703 699
a 703 722
a 703 912
a 703 1138
a 1140 211
a 1140 1172
a 1140 729
a 1140 913
a 1140 1139
a 1172 1140
a 1172 1173
a 1172 242
a 1172 243
a 1172 244
a 1172 245
a 1172 1046
a 1172 918
a 1172 188
a 1142 217
a 1142 867
a 1142 914
a 1142 1141
a 1144 1083
a 1144 741
a 1144 915
a 1144 1143
a 1150 528
a 1150 265
a 1150 916
a 1150 1174
a 739 550
a 739 735
a 739 762
a 739 822
a 263 637
a 263 33
a 263 706
a 263 1145
a 760 653
a 760 749
a 760 1046
a 760 918
a 760 1175
a 266 532
a 266 34
a 266 720
a 266 1176
a 862 555
a 862 1177
a 862 596
a 862 847
a 1177 862
a 1177 1178
a 1177 1046
a 1147 780
a 1147 1179
a 1147 789
a 1147 1146
a 1179 1147
a 1179 1180
a 1179 720
a 201 687
a 201 544
a 201 272
a 201 920
a 201 23
a 216 661
a 216 784
a 216 199
a 216 200
a 216 24
a 221 228
a 221 35
a 221 214
a 221 215
a 221 25
a 1149 1108
a 1149 219
a 1149 220
a 1149 1148
a 531 1113
a 531 545
a 531 1073
a 531 921
a 531 517
a 554 238
a 554 1181
a 554 812
a 554 922
a 554 541
a 1181 554
a 1181 1182
a 1181 219
a 639 247
a 639 807
a 639 552
a 639 553
a 639 632
a 655 1123
a 655 709
a 655 276
a 655 923
a 655 649
a 273 251
a 273 36
a 273 270
a 273 271
a 273 518
a 559 1124
a 559 1183
a 559 535
a 559 542
a 1183 559
a 1183 1184
a 1183 270
a 782 1125
a 782 1185
a 782 557
a 782 558
a 782 776
a 1185 782
a 1185 1186
a 1185 535
a 691 1126
a 691 1187
a 691 1088
a 691 682
a 1187 691
a 1187 1188
a 1187 557
a 665 1127
a 665 1189
a 665 689
a 665 690
a 665 657
a 1189 665
a 1189 1190
a 1189 1088
a 233 1128
a 233 1191
a 233 663
a 233 664
a 233 26
a 1191 233
a 1191 1192
a 1191 689
a 864 1129
a 864 1193
a 864 231
a 864 232
a 864 848
a 1193 864
a 1193 1194
a 1193 663
a 630 1130
a 630 1195
a 630 888
a 630 625
a 1195 630
a 1195 1196
a 1195 231
a 246 259
a 246 1098
a 246 27
a 250 560
a 250 1197
a 250 1101
a 250 28
a 1197 250
a 1197 902
a 1197 1101
a 1152 1132
a 1152 1198
a 1152 1104
a 1152 1199
a 1198 1152
a 1198 905
a 1198 1104
a 254 511
a 254 162
a 254 96
a 254 1106
a 254 29
a 96 254
a 96 603
a 96 753
a 96 112
a 96 15
a 96 288
a 96 18
a 96 599
a 96 611
a 96 20
a 96 1131
a 96 747
a 96 21
a 96 612
a 96 1134
a 96 22
a 96 1136
a 96 1138
a 96 1139
a 96 1141
a 96 1143
a 96 1174
a 96 1145
a 96 1175
a 96 23
a 96 24
a 96 25
a 96 1148
a 96 517
a 96 541
a 96 632
a 96 649
a 96 518
a 96 542
a 96 776
a 96 682
a 96 657
a 96 26
a 96 848
a 96 28
a 96 1199
a 96 1151
a 96 1200
a 96 1162
a 989 512
a 989 1003
a 989 101
a 989 1111
a 989 1151
a 101 989
a 101 616
a 101 1020
a 101 113
a 101 16
a 101 288
a 101 18
a 101 599
a 101 611
a 101 20
a 101 1131
a 101 747
a 101 21
a 101 612
a 101 1134
a 101 22
a 101 1136
a 101 1138
a 101 1139
a 101 1141
a 101 1143
a 101 1174
a 101 1145
a 101 1175
a 101 23
a 101 24
a 101 25
a 101 1148
a 101 517
a 101 541
a 101 632
a 101 649
a 101 518
a 101 542
a 101 776
a 101 682
a 101 657
a 101 26
a 101 848
a 101 28
a 101 1199
a 101 1151
a 101 1200
a 101 1162
a 991 513
a 991 525
a 991 106
a 991 1115
a 991 1200
a 106 991
a 106 628
a 106 855
a 106 114
a 106 17
a 106 288
a 106 18
a 106 599
a 106 611
a 106 20
a 106 1131
a 106 747
a 106 21
a 106 612
a 106 1134
a 106 22
a 106 1136
a 106 1138
a 106 1139
a 106 1141
a 106 1143
a 106 1174
a 106 1145
a 106 1175
a 106 23
a 106 24
a 106 25
a 106 1148
a 106 517
a 106 541
a 106 632
a 106 649
a 106 518
a 106 542
a 106 776
a 106 682
a 106 657
a 106 26
a 106 848
a 106 28
a 106 1199
a 106 1151
a 106 1200
a 106 1162
a 992 514
a 992 617
a 992 109
a 992 1119
a 992 1201
a 109 992
a 109 636
a 109 620
a 109 115
a 109 288
a 109 18
a 109 599
a 109 611
a 109 20
a 109 1131
a 109 747
a 109 21
a 109 612
a 109 1134
a 109 22
a 109 1136
a 109 1138
a 109 1139
a 109 1141
a 109 1143
a 109 1174
a 109 1145
a 109 1175
a 109 23
a 109 24
a 109 25
a 109 1148
a 109 517
a 109 541
a 109 632
a 109 649
a 109 518
a 109 542
a 109 776
a 109 682
a 109 657
a 109 26
a 109 848
a 109 28
a 109 1199
a 109 1151
a 109 1200
a 109 1162
a 834 524
a 834 168
a 834 110
a 834 1122
a 834 828
a 110 834
a 110 645
a 110 1029
a 110 116
a 110 288
a 110 18
a 110 599
a 110 611
a 110 20
a 110 1131
a 110 747
a 110 21
a 110 612
a 110 1134
a 110 22
a 110 1136
a 110 1138
a 110 1139
a 110 1141
a 110 1143
a 110 1174
a 110 1145
a 110 1175
a 110 23
a 110 24
a 110 25
a 110 1148
a 110 517
a 110 541
a 110 632
a 110 649
a 110 518
a 110 542
a 110 776
a 110 682
a 110 657
a 110 26
a 110 848
a 110 28
a 110 1199
a 110 1151
a 110 1200
a 110 1162
a 929 549
a 929 1014
a 929 111
a 929 900
a 929 469
a 111 929
a 111 652
a 111 185
a 111 117
a 111 288
a 111 18
a 111 19
a 111 599
a 111 611
a 111 20
a 111 1131
a 111 747
a 111 21
a 111 612
a 111 1134
a 111 22
a 111 1136
a 111 1138
a 111 1139
a 111 1141
a 111 1143
a 111 1174
a 111 1145
a 111 1175
a 111 23
a 111 24
a 111 25
a 111 1148
a 111 517
a 111 541
a 111 632
a 111 649
a 111 518
a 111 542
a 111 776
a 111 682
a 111 657
a 111 26
a 111 848
a 111 28
a 111 1199
a 111 1151
a 111 1200
a 111 1162
a 112 96
a 112 660
a 112 1036
a 112 118
a 112 288
a 112 18
a 112 599
a 112 611
a 112 20
a 112 1131
a 112 747
a 112 21
a 112 612
a 112 1134
a 112 22
a 112 1136
a 112 1138
a 112 1139
a 112 1141
a 112 1143
a 112 1174
a 112 1145
a 112 1175
a 112 23
a 112 24
a 112 25
a 112 1148
a 112 517
a 112 541
a 112 632
a 112 649
a 112 518
a 112 542
a 112 776
a 112 682
a 112 657
a 112 26
a 112 848
a 112 28
a 112 1199
a 112 1151
a 112 1200
a 112 1162
a 113 101
a 113 669
a 113 1039
a 113 119
a 113 288
a 113 18
a 113 599
a 113 516
a 113 611
a 113 20
a 113 1131
a 113 747
a 113 21
a 113 612
a 113 1134
a 113 22
a 113 1136
a 113 1138
a 113 1139
a 113 1141
a 113 1143
a 113 1174
a 113 1145
a 113 1175
a 113 23
a 113 24
a 113 25
a 113 1148
a 113 517
a 113 541
a 113 632
a 113 649
a 113 518
a 113 542
a 113 776
a 113 682
a 113 657
a 113 26
a 113 848
a 113 28
a 113 1199
a 113 1151
a 113 1200
a 113 1162
a 114 106
a 114 674
a 114 1043
a 114 120
a 114 288
a 114 18
a 114 599
a 114 611
a 114 20
a 114 1131
a 114 747
a 114 21
a 114 612
a 114 1134
a 114 22
a 114 1136
a 114 1138
a 114 1139
a 114 1141
a 114 1143
a 114 1174
a 114 1145
a 114 1175
a 114 23
a 114 24
a 114 25
a 114 1148
a 114 517
a 114 541
a 114 632
a 114 649
a 114 518
a 114 542
a 114 776
a 114 682
a 114 657
a 114 26
a 114 848
a 114 28
a 114 1199
a 114 1151
a 114 1200
a 114 1162
a 115 109
a 115 680
a 115 1048
a 115 121
a 115 288
a 115 18
a 115 599
a 115 611
a 115 20
a 115 1131
a 115 747
a 115 21
a 115 612
a 115 1134
a 115 22
a 115 1136
a 115 1138
a 115 1139
a 115 1141
a 115 1143
a 115 1174
a 115 1145
a 115 1175
a 115 23
a 115 24
a 115 25
a 115 1148
a 115 517
a 115 541
a 115 632
a 115 649
a 115 518
a 115 542
a 115 776
a 115 682
a 115 657
a 115 26
a 115 848
a 115 28
a 115 1199
a 115 1151
a 115 1200
a 115 1162
a 116 110
a 116 686
a 116 1052
a 116 122
a 116 288
a 116 18
a 116 599
a 116 611
a 116 20
a 116 1131
a 116 747
a 116 21
a 116 612
a 116 1134
a 116 22
a 116 1136
a 116 1138
a 116 1139
a 116 1141
a 116 1143
a 116 1174
a 116 1145
a 116 1175
a 116 23
a 116 24
a 116 25
a 116 1148
a 116 517
a 116 541
a 116 632
a 116 649
a 116 518
a 116 542
a 116 776
a 116 682
a 116 657
a 116 26
a 116 848
a 116 28
a 116 1199
a 116 1151
a 116 1200
a 116 1162
a 117 111
a 117 697
a 117 1055
a 117 123
a 117 288
a 117 18
a 117 599
a 117 611
a 117 20
a 117 1131
a 117 747
a 117 21
a 117 612
a 117 1134
a 117 22
a 117 1136
a 117 1138
a 117 1139
a 117 1141
a 117 1143
a 117 1174
a 117 1145
a 117 1175
a 117 23
a 117 24
a 117 25
a 117 1148
a 117 517
a 117 541
a 117 632
a 117 649
a 117 518
a 117 542
a 117 776
a 117 682
a 117 657
a 117 26
a 117 848
a 117 28
a 117 1199
a 117 1151
a 117 1200
a 117 1162
a 118 112
a 118 702
a 118 1059
a 118 124
a 118 288
a 118 18
a 118 599
a 118 611
a 118 20
a 118 1131
a 118 747
a 118 21
a 118 612
a 118 1134
a 118 22
a 118 1136
a 118 1138
a 118 1139
a 118 1141
a 118 1143
a 118 1174
a 118 1145
a 118 1175
a 118 23
a 118 24
a 118 25
a 118 1148
a 118 517
a 118 541
a 118 632
a 118 649
a 118 518
a 118 542
a 118 776
a 118 682
a 118 657
a 118 26
a 118 848
a 118 28
a 118 1199
a 118 1151
a 118 1200
a 118 1162
a 119 113
a 119 712
a 119 1062
a 119 125
a 119 288
a 119 18
a 119 599
a 119 611
a 119 20
a 119 1131
a 119 747
a 119 21
a 119 846
a 119 612
a 119 1134
a 119 22
a 119 1136
a 119 1138
a 119 1139
a 119 1141
a 119 1143
a 119 1174
a 119 1145
a 119 1175
a 119 23
a 119 24
a 119 25
a 119 1148
a 119 517
a 119 541
a 119 632
a 119 649
a 119 518
a 119 542
a 119 776
a 119 682
a 119 657
a 119 26
a 119 848
a 119 28
a 119 1199
a 119 1151
a 119 1200
a 119 1162
a 120 114
a 120 718
a 120 1065
a 120 126
a 120 288
a 120 18
a 120 599
a 120 611
a 120 20
a 120 1131
a 120 747
a 120 21
a 120 612
a 120 1134
a 120 22
a 120 1136
a 120 1138
a 120 1139
a 120 1141
a 120 1143
a 120 1174
a 120 1145
a 120 1175
a 120 23
a 120 24
a 120 25
a 120 1148
a 120 517
a 120 541
a 120 632
a 120 649
a 120 518
a 120 542
a 120 776
a 120 682
a 120 657
a 120 26
a 120 848
a 120 28
a 120 1199
a 120 1151
a 120 1200
a 120 1162
a 121 115
a 121 727
a 121 1068
a 121 127
a 121 288
a 121 18
a 121 599
a 121 611
a 121 20
a 121 1131
a 121 747
a 121 21
a 121 612
a 121 1134
a 121 22
a 121 1136
a 121 1138
a 121 1139
a 121 1141
a 121 1143
a 121 1174
a 121 1145
a 121 1175
a 121 23
a 121 24
a 121 25
a 121 1148
a 121 517
a 121 541
a 121 632
a 121 649
a 121 518
a 121 542
a 121 776
a 121 682
a 121 657
a 121 26
a 121 848
a 121 28
a 121 1199
a 121 1151
a 121 1200
a 121 1162
a 122 116
a 122 733
a 122 1071
a 122 128
a 122 288
a 122 18
a 122 599
a 122 611
a 122 20
a 122 1131
a 122 747
a 122 21
a 122 612
a 122 1134
a 122 22
a 122 1136
a 122 1138
a 122 1139
a 122 1141
a 122 1143
a 122 1174
a 122 1145
a 122 1175
a 122 23
a 122 24
a 122 25
a 122 1148
a 122 517
a 122 541
a 122 632
a 122 649
a 122 518
a 122 542
a 122 776
a 122 682
a 122 657
a 122 26
a 122 848
a 122 28
a 122 1199
a 122 1151
a 122 1200
a 122 1162
a 123 117
a 123 738
a 123 1075
a 123 129
a 123 288
a 123 18
a 123 599
a 123 611
a 123 20
a 123 1131
a 123 747
a 123 21
a 123 612
a 123 1134
a 123 22
a 123 1136
a 123 1138
a 123 1139
a 123 1141
a 123 1143
a 123 1174
a 123 1145
a 123 1175
a 123 23
a 123 24
a 123 25
a 123 1148
a 123 517
a 123 541
a 123 632
a 123 649
a 123 518
a 123 542
a 123 776
a 123 682
a 123 657
a 123 26
a 123 848
a 123 28
a 123 1199
a 123 1151
a 123 1200
a 123 1162
a 124 118
a 124 745
a 124 197
a 124 130
a 124 288
a 124 18
a 124 599
a 124 611
a 124 20
a 124 1131
a 124 747
a 124 21
a 124 612
a 124 1134
a 124 22
a 124 1136
a 124 1138
a 124 1139
a 124 1141
a 124 1143
a 124 1174
a 124 1145
a 124 1175
a 124 23
a 124 24
a 124 25
a 124 1148
a 124 517
a 124 541
a 124 632
a 124 649
a 124 518
a 124 542
a 124 776
a 124 682
a 124 657
a 124 26
a 124 848
a 124 28
a 124 1199
a 124 1151
a 124 1200
a 124 1162
a 125 119
a 125 752
a 125 211
a 125 131
a 125 288
a 125 18
a 125 599
a 125 611
a 125 20
a 125 1131
a 125 747
a 125 21
a 125 612
a 125 1134
a 125 22
a 125 1136
a 125 1138
a 125 1139
a 125 1141
a 125 1143
a 125 1174
a 125 1145
a 125 1175
a 125 23
a 125 24
a 125 25
a 125 1148
a 125 517
a 125 541
a 125 632
a 125 649
a 125 518
a 125 542
a 125 776
a 125 682
a 125 657
a 125 26
a 125 848
a 125 28
a 125 1199
a 125 1151
a 125 1200
a 125 1162
a 126 120
a 126 766
a 126 217
a 126 132
a 126 288
a 126 18
a 126 599
a 126 611
a 126 20
a 126 1131
a 126 747
a 126 21
a 126 612
a 126 1134
a 126 22
a 126 1136
a 126 1138
a 126 1139
a 126 1141
a 126 1143
a 126 1174
a 126 1145
a 126 1175
a 126 23
a 126 24
a 126 25
a 126 1148
a 126 517
a 126 541
a 126 632
a 126 649
a 126 518
a 126 542
a 126 776
a 126 682
a 126 657
a 126 26
a 126 848
a 126 28
a 126 1199
a 126 1151
a 126 1200
a 126 1162
a 127 121
a 127 770
a 127 1083
a 127 133
a 127 288
a 127 18
a 127 599
a 127 611
a 127 20
a 127 1131
a 127 747
a 127 21
a 127 612
a 127 1134
a 127 22
a 127 1136
a 127 1138
a 127 1139
a 127 1141
a 127 1143
a 127 1174
a 127 1145
a 127 1175
a 127 23
a 127 24
a 127 25
a 127 1148
a 127 517
a 127 541
a 127 632
a 127 649
a 127 518
a 127 542
a 127 776
a 127 682
a 127 657
a 127 26
a 127 848
a 127 28
a 127 1199
a 127 1151
a 127 1200
a 127 1162
a 128 122
a 128 774
a 128 528
a 128 134
a 128 288
a 128 18
a 128 599
a 128 611
a 128 20
a 128 1131
a 128 747
a 128 21
a 128 612
a 128 1134
a 128 22
a 128 1136
a 128 1138
a 128 1139
a 128 1141
a 128 1143
a 128 1174
a 128 1145
a 128 1175
a 128 23
a 128 24
a 128 25
a 128 1148
a 128 517
a 128 541
a 128 632
a 128 649
a 128 518
a 128 542
a 128 776
a 128 682
a 128 657
a 128 26
a 128 848
a 128 28
a 128 1199
a 128 1151
a 128 1200
a 128 1162
a 129 123
a 129 779
a 129 550
a 129 135
a 129 288
a 129 18
a 129 599
a 129 611
a 129 20
a 129 1131
a 129 747
a 129 21
a 129 612
a 129 1134
a 129 22
a 129 1136
a 129 1138
a 129 1139
a 129 1141
a 129 1143
a 129 1174
a 129 822
a 129 1145
a 129 1175
a 129 23
a 129 24
a 129 25
a 129 1148
a 129 517
a 129 541
a 129 632
a 129 649
a 129 518
a 129 542
a 129 776
a 129 682
a 129 657
a 129 26
a 129 848
a 129 28
a 129 1199
a 129 1151
a 129 1200
a 129 1162
a 130 124
a 130 787
a 130 637
a 130 136
a 130 288
a 130 18
a 130 599
a 130 611
a 130 20
a 130 1131
a 130 747
a 130 21
a 130 612
a 130 1134
a 130 22
a 130 1136
a 130 1138
a 130 1139
a 130 1141
a 130 1143
a 130 1174
a 130 1145
a 130 1175
a 130 23
a 130 24
a 130 25
a 130 1148
a 130 517
a 130 541
a 130 632
a 130 649
a 130 518
a 130 542
a 130 776
a 130 682
a 130 657
a 130 26
a 130 848
a 130 28
a 130 1199
a 130 1151
a 130 1200
a 130 1162
a 131 125
a 131 793
a 131 653
a 131 137
a 131 288
a 131 18
a 131 599
a 131 611
a 131 20
a 131 1131
a 131 747
a 131 21
a 131 612
a 131 1134
a 131 22
a 131 1136
a 131 1138
a 131 1139
a 131 1141
a 131 1143
a 131 1174
a 131 1145
a 131 1175
a 131 23
a 131 24
a 131 25
a 131 1148
a 131 517
a 131 541
a 131 632
a 131 649
a 131 518
a 131 542
a 131 776
a 131 682
a 131 657
a 131 26
a 131 848
a 131 28
a 131 1199
a 131 1151
a 131 1200
a 131 1162
a 132 126
a 132 797
a 132 532
a 132 138
a 132 288
a 132 18
a 132 599
a 132 611
a 132 20
a 132 1131
a 132 747
a 132 21
a 132 612
a 132 1134
a 132 22
a 132 1136
a 132 1138
a 132 1139
a 132 1141
a 132 1143
a 132 1174
a 132 1145
a 132 1175
a 132 1176
a 132 23
a 132 24
a 132 25
a 132 1148
a 132 517
a 132 541
a 132 632
a 132 649
a 132 518
a 132 542
a 132 776
a 132 682
a 132 657
a 132 26
a 132 848
a 132 28
a 132 1199
a 132 1151
a 132 1200
a 132 1162
a 133 127
a 133 801
a 133 555
a 133 139
a 133 288
a 133 18
a 133 599
a 133 611
a 133 20
a 133 1131
a 133 747
a 133 21
a 133 612
a 133 1134
a 133 22
a 133 1136
a 133 1138
a 133 1139
a 133 1141
a 133 1143
a 133 1174
a 133 1145
a 133 1175
a 133 847
a 133 23
a 133 24
a 133 25
a 133 1148
a 133 517
a 133 541
a 133 632
a 133 649
a 133 518
a 133 542
a 133 776
a 133 682
a 133 657
a 133 26
a 133 848
a 133 28
a 133 1199
a 133 1151
a 133 1200
a 133 1162
a 134 128
a 134 805
a 134 780
a 134 140
a 134 288
a 134 18
a 134 599
a 134 611
a 134 20
a 134 1131
a 134 747
a 134 21
a 134 612
a 134 1134
a 134 22
a 134 1136
a 134 1138
a 134 1139
a 134 1141
a 134 1143
a 134 1174
a 134 1145
a 134 1175
a 134 1146
a 134 23
a 134 24
a 134 25
a 134 1148
a 134 517
a 134 541
a 134 632
a 134 649
a 134 518
a 134 542
a 134 776
a 134 682
a 134 657
a 134 26
a 134 848
a 134 28
a 134 1199
a 134 1151
a 134 1200
a 134 1162
a 135 129
a 135 810
a 135 687
a 135 141
a 135 288
a 135 18
a 135 599
a 135 611
a 135 20
a 135 1131
a 135 747
a 135 21
a 135 612
a 135 1134
a 135 22
a 135 1136
a 135 1138
a 135 1139
a 135 1141
a 135 1143
a 135 1174
a 135 1145
a 135 1175
a 135 23
a 135 24
a 135 25
a 135 1148
a 135 517
a 135 541
a 135 632
a 135 649
a 135 518
a 135 542
a 135 776
a 135 682
a 135 657
a 135 26
a 135 848
a 135 28
a 135 1199
a 135 1151
a 135 1200
a 135 1162
a 136 130
a 136 816
a 136 661
a 136 142
a 136 288
a 136 18
a 136 599
a 136 611
a 136 20
a 136 1131
a 136 747
a 136 21
a 136 612
a 136 1134
a 136 22
a 136 1136
a 136 1138
a 136 1139
a 136 1141
a 136 1143
a 136 1174
a 136 1145
a 136 1175
a 136 23
a 136 24
a 136 25
a 136 1148
a 136 517
a 136 541
a 136 632
a 136 649
a 136 518
a 136 542
a 136 776
a 136 682
a 136 657
a 136 26
a 136 848
a 136 28
a 136 1199
a 136 1151
a 136 1200
a 136 1162
a 137 131
a 137 820
a 137 228
a 137 143
a 137 288
a 137 18
a 137 599
a 137 611
a 137 20
a 137 1131
a 137 747
a 137 21
a 137 612
a 137 1134
a 137 22
a 137 1136
a 137 1138
a 137 1139
a 137 1141
a 137 1143
a 137 1174
a 137 1145
a 137 1175
a 137 23
a 137 24
a 137 25
a 137 1148
a 137 517
a 137 541
a 137 632
a 137 649
a 137 518
a 137 542
a 137 776
a 137 682
a 137 657
a 137 26
a 137 848
a 137 28
a 137 1199
a 137 1151
a 137 1200
a 137 1162
a 138 132
a 138 825
a 138 1108
a 138 144
a 138 288
a 138 18
a 138 599
a 138 611
a 138 20
a 138 1131
a 138 747
a 138 21
a 138 612
a 138 1134
a 138 22
a 138 1136
a 138 1138
a 138 1139
a 138 1141
a 138 1143
a 138 1174
a 138 1145
a 138 1175
a 138 23
a 138 24
a 138 25
a 138 1148
a 138 517
a 138 541
a 138 632
a 138 649
a 138 518
a 138 542
a 138 776
a 138 682
a 138 657
a 138 26
a 138 848
a 138 28
a 138 1199
a 138 1151
a 138 1200
a 138 1162
a 139 133
a 139 832
a 139 1113
a 139 145
a 139 288
a 139 18
a 139 599
a 139 611
a 139 20
a 139 1131
a 139 747
a 139 21
a 139 612
a 139 1134
a 139 22
a 139 1136
a 139 1138
a 139 1139
a 139 1141
a 139 1143
a 139 1174
a 139 1145
a 139 1175
a 139 23
a 139 24
a 139 25
a 139 1148
a 139 517
a 139 541
a 139 632
a 139 649
a 139 518
a 139 542
a 139 776
a 139 682
a 139 657
a 139 26
a 139 848
a 139 28
a 139 1199
a 139 1151
a 139 1200
a 139 1162
a 140 134
a 140 839
a 140 238
a 140 146
a 140 288
a 140 18
a 140 599
a 140 611
a 140 20
a 140 1131
a 140 747
a 140 21
a 140 612
a 140 1134
a 140 22
a 140 1136
a 140 1138
a 140 1139
a 140 1141
a 140 1143
a 140 1174
a 140 1145
a 140 1175
a 140 23
a 140 24
a 140 25
a 140 1148
a 140 517
a 140 541
a 140 632
a 140 649
a 140 518
a 140 542
a 140 776
a 140 682
a 140 657
a 140 26
a 140 848
a 140 28
a 140 1199
a 140 1151
a 140 1200
a 140 1162
a 141 135
a 141 844
a 141 247
a 141 147
a 141 288
a 141 18
a 141 599
a 141 611
a 141 20
a 141 1131
a 141 747
a 141 21
a 141 612
a 141 1134
a 141 22
a 141 1136
a 141 1138
a 141 1139
a 141 1141
a 141 1143
a 141 1174
a 141 1145
a 141 1175
a 141 23
a 141 24
a 141 25
a 141 1148
a 141 517
a 141 541
a 141 632
a 141 649
a 141 518
a 141 542
a 141 776
a 141 682
a 141 657
a 141 26
a 141 848
a 141 28
a 141 1199
a 141 1151
a 141 1200
a 141 1162
a 142 136
a 142 854
a 142 1123
a 142 148
a 142 288
a 142 18
a 142 599
a 142 611
a 142 20
a 142 1131
a 142 747
a 142 21
a 142 612
a 142 1134
a 142 22
a 142 1136
a 142 1138
a 142 1139
a 142 1141
a 142 1143
a 142 1174
a 142 1145
a 142 1175
a 142 23
a 142 24
a 142 25
a 142 1148
a 142 517
a 142 541
a 142 632
a 142 649
a 142 518
a 142 542
a 142 776
a 142 682
a 142 657
a 142 26
a 142 848
a 142 28
a 142 1199
a 142 1151
a 142 1200
a 142 1162
a 143 137
a 143 873
a 143 251
a 143 149
a 143 288
a 143 18
a 143 599
a 143 611
a 143 20
a 143 1131
a 143 747
a 143 21
a 143 612
a 143 1134
a 143 22
a 143 1136
a 143 1138
a 143 1139
a 143 1141
a 143 1143
a 143 1174
a 143 1145
a 143 1175
a 143 23
a 143 24
a 143 25
a 143 1148
a 143 517
a 143 541
a 143 632
a 143 649
a 143 518
a 143 542
a 143 776
a 143 682
a 143 657
a 143 26
a 143 848
a 143 28
a 143 1199
a 143 1151
a 143 1200
a 143 1162
a 144 138
a 144 880
a 144 1124
a 144 150
a 144 288
a 144 18
a 144 599
a 144 611
a 144 20
a 144 1131
a 144 747
a 144 21
a 144 612
a 144 1134
a 144 22
a 144 1136
a 144 1138
a 144 1139
a 144 1141
a 144 1143
a 144 1174
a 144 1145
a 144 1175
a 144 23
a 144 24
a 144 25
a 144 1148
a 144 517
a 144 541
a 144 632
a 144 649
a 144 518
a 144 542
a 144 776
a 144 682
a 144 657
a 144 26
a 144 848
a 144 28
a 144 1199
a 144 1151
a 144 1200
a 144 1162
a 145 139
a 145 886
a 145 1125
a 145 151
a 145 288
a 145 18
a 145 599
a 145 611
a 145 20
a 145 1131
a 145 747
a 145 21
a 145 612
a 145 1134
a 145 22
a 145 1136
a 145 1138
a 145 1139
a 145 1141
a 145 1143
a 145 1174
a 145 1145
a 145 1175
a 145 23
a 145 24
a 145 25
a 145 1148
a 145 517
a 145 541
a 145 632
a 145 649
a 145 518
a 145 542
a 145 776
a 145 682
a 145 657
a 145 26
a 145 848
a 145 28
a 145 1199
a 145 1151
a 145 1200
a 145 1162
a 146 140
a 146 893
a 146 1126
a 146 152
a 146 288
a 146 18
a 146 599
a 146 611
a 146 20
a 146 1131
a 146 747
a 146 21
a 146 612
a 146 1134
a 146 22
a 146 1136
a 146 1138
a 146 1139
a 146 1141
a 146 1143
a 146 1174
a 146 1145
a 146 1175
a 146 23
a 146 24
a 146 25
a 146 1148
a 146 517
a 146 541
a 146 632
a 146 649
a 146 518
a 146 542
a 146 776
a 146 682
a 146 657
a 146 26
a 146 848
a 146 28
a 146 1199
a 146 1151
a 146 1200
a 146 1162
a 147 141
a 147 898
a 147 1127
a 147 153
a 147 288
a 147 18
a 147 599
a 147 611
a 147 20
a 147 1131
a 147 747
a 147 21
a 147 612
a 147 1134
a 147 22
a 147 1136
a 147 1138
a 147 1139
a 147 1141
a 147 1143
a 147 1174
a 147 1145
a 147 1175
a 147 23
a 147 24
a 147 25
a 147 1148
a 147 517
a 147 541
a 147 632
a 147 649
a 147 518
a 147 542
a 147 776
a 147 682
a 147 657
a 147 26
a 147 848
a 147 28
a 147 1199
a 147 1151
a 147 1200
a 147 1162
a 148 142
a 148 987
a 148 1128
a 148 89
a 148 288
a 148 18
a 148 599
a 148 611
a 148 20
a 148 1131
a 148 747
a 148 21
a 148 612
a 148 1134
a 148 22
a 148 1136
a 148 1138
a 148 1139
a 148 1141
a 148 1143
a 148 1174
a 148 1145
a 148 1175
a 148 23
a 148 24
a 148 25
a 148 1148
a 148 517
a 148 541
a 148 632
a 148 649
a 148 518
a 148 542
a 148 776
a 148 682
a 148 657
a 148 26
a 148 848
a 148 28
a 148 1199
a 148 1151
a 148 1200
a 148 1162
a 149 143
a 149 988
a 149 1129
a 149 154
a 149 288
a 149 18
a 149 599
a 149 611
a 149 20
a 149 1131
a 149 747
a 149 21
a 149 612
a 149 1134
a 149 22
a 149 1136
a 149 1138
a 149 1139
a 149 1141
a 149 1143
a 149 1174
a 149 1145
a 149 1175
a 149 23
a 149 24
a 149 25
a 149 1148
a 149 517
a 149 541
a 149 632
a 149 649
a 149 518
a 149 542
a 149 776
a 149 682
a 149 657
a 149 26
a 149 848
a 149 28
a 149 1199
a 149 1151
a 149 1200
a 149 1162
a 150 144
a 150 990
a 150 1130
a 150 155
a 150 288
a 150 18
a 150 599
a 150 611
a 150 20
a 150 1131
a 150 747
a 150 21
a 150 612
a 150 1134
a 150 22
a 150 1136
a 150 1138
a 150 1139
a 150 1141
a 150 1143
a 150 1174
a 150 1145
a 150 1175
a 150 23
a 150 24
a 150 25
a 150 1148
a 150 517
a 150 541
a 150 632
a 150 649
a 150 518
a 150 542
a 150 776
a 150 682
a 150 657
a 150 26
a 150 848
a 150 625
a 150 28
a 150 1199
a 150 1151
a 150 1200
a 150 1162
a 151 145
a 151 102
a 151 259
a 151 156
a 151 288
a 151 18
a 151 599
a 151 611
a 151 20
a 151 1131
a 151 747
a 151 21
a 151 612
a 151 1134
a 151 22
a 151 1136
a 151 1138
a 151 1139
a 151 1141
a 151 1143
a 151 1174
a 151 1145
a 151 1175
a 151 23
a 151 24
a 151 25
a 151 1148
a 151 517
a 151 541
a 151 632
a 151 649
a 151 518
a 151 542
a 151 776
a 151 682
a 151 657
a 151 26
a 151 848
a 151 27
a 151 28
a 151 1199
a 151 1151
a 151 1200
a 151 1162
a 152 146
a 152 322
a 152 560
a 152 157
a 152 288
a 152 18
a 152 599
a 152 611
a 152 20
a 152 1131
a 152 747
a 152 21
a 152 612
a 152 1134
a 152 22
a 152 1136
a 152 1138
a 152 1139
a 152 1141
a 152 1143
a 152 1174
a 152 1145
a 152 1175
a 152 23
a 152 24
a 152 25
a 152 1148
a 152 517
a 152 541
a 152 632
a 152 649
a 152 518
a 152 542
a 152 776
a 152 682
a 152 657
a 152 26
a 152 848
a 152 28
a 152 1199
a 152 1151
a 152 1200
a 152 1162
a 153 147
a 153 996
a 153 1132
a 153 158
a 153 288
a 153 18
a 153 599
a 153 611
a 153 20
a 153 1131
a 153 747
a 153 21
a 153 612
a 153 1134
a 153 22
a 153 1136
a 153 1138
a 153 1139
a 153 1141
a 153 1143
a 153 1174
a 153 1145
a 153 1175
a 153 23
a 153 24
a 153 25
a 153 1148
a 153 517
a 153 541
a 153 632
a 153 649
a 153 518
a 153 542
a 153 776
a 153 682
a 153 657
a 153 26
a 153 848
a 153 28
a 153 1199
a 153 1151
a 153 1200
a 153 1162
a 89 148
a 89 239
a 89 14
a 89 27
a 89 28
a 89 608
a 89 288
a 89 18
a 89 599
a 89 611
a 89 20
a 89 1131
a 89 747
a 89 21
a 89 612
a 89 1134
a 89 22
a 89 1136
a 89 1138
a 89 1139
a 89 1141
a 89 1143
a 89 1174
a 89 1145
a 89 1175
a 89 23
a 89 24
a 89 25
a 89 1148
a 89 517
a 89 541
a 89 632
a 89 649
a 89 518
a 89 542
a 89 776
a 89 682
a 89 657
a 89 26
a 89 848
a 89 1199
a 89 29
a 89 1151
a 89 1200
a 89 1162
a 154 149
a 154 933
a 154 288
a 154 27
a 154 28
a 154 608
a 154 18
a 154 599
a 154 611
a 154 20
a 154 1131
a 154 747
a 154 21
a 154 612
a 154 1134
a 154 22
a 154 1136
a 154 1138
a 154 1139
a 154 1141
a 154 1143
a 154 1174
a 154 1145
a 154 1175
a 154 23
a 154 24
a 154 25
a 154 1148
a 154 517
a 154 541
a 154 632
a 154 649
a 154 518
a 154 542
a 154 776
a 154 682
a 154 657
a 154 26
a 154 848
a 154 1199
a 154 1151
a 154 1200
a 154 1162
a 155 150
a 155 936
a 155 599
a 155 27
a 155 28
a 155 608
a 155 288
a 155 18
a 155 611
a 155 20
a 155 1131
a 155 747
a 155 21
a 155 612
a 155 1134
a 155 22
a 155 1136
a 155 1138
a 155 1139
a 155 1141
a 155 1143
a 155 1174
a 155 1145
a 155 1175
a 155 23
a 155 24
a 155 25
a 155 1148
a 155 517
a 155 541
a 155 632
a 155 649
a 155 518
a 155 542
a 155 776
a 155 682
a 155 657
a 155 26
a 155 848
a 155 1199
a 155 1151
a 155 1200
a 155 1162
a 156 151
a 156 1006
a 156 21
a 156 27
a 156 28
a 156 608
a 156 288
a 156 18
a 156 599
a 156 611
a 156 20
a 156 1131
a 156 747
a 156 612
a 156 1134
a 156 22
a 156 1136
a 156 1138
a 156 1139
a 156 1141
a 156 1143
a 156 1174
a 156 1145
a 156 1175
a 156 23
a 156 24
a 156 25
a 156 1148
a 156 517
a 156 541
a 156 632
a 156 649
a 156 518
a 156 542
a 156 776
a 156 682
a 156 657
a 156 26
a 156 848
a 156 1199
a 156 1151
a 156 1200
a 156 1201
a 156 1162
a 157 152
a 157 1011
a 157 612
a 157 27
a 157 28
a 157 608
a 157 288
a 157 18
a 157 599
a 157 611
a 157 20
a 157 1131
a 157 747
a 157 21
a 157 1134
a 157 22
a 157 1136
a 157 1138
a 157 1139
a 157 1141
a 157 1143
a 157 1174
a 157 1145
a 157 1175
a 157 23
a 157 24
a 157 25
a 157 1148
a 157 517
a 157 541
a 157 632
a 157 649
a 157 518
a 157 542
a 157 776
a 157 682
a 157 657
a 157 26
a 157 848
a 157 1199
a 157 1151
a 157 1200
a 157 828
a 157 1162
a 158 153
a 158 1072
a 158 1148
a 158 27
a 158 28
a 158 608
a 158 288
a 158 18
a 158 599
a 158 611
a 158 20
a 158 1131
a 158 747
a 158 21
a 158 612
a 158 1134
a 158 22
a 158 1136
a 158 1138
a 158 1139
a 158 1141
a 158 1143
a 158 1174
a 158 1145
a 158 1175
a 158 23
a 158 24
a 158 25
a 158 517
a 158 541
a 158 632
a 158 649
a 158 518
a 158 542
a 158 776
a 158 682
a 158 657
a 158 26
a 158 848
a 158 1199
a 158 1151
a 158 1200
a 158 469
a 158 1162
a 239 89
a 239 1097
a 239 625
a 239 27
a 239 28
a 239 608
a 239 471
a 608 89
a 608 154
a 608 155
a 608 156
a 608 157
a 608 158
a 608 239
a 608 471
a 608 473
a 608 475
a 608 477
a 608 479
a 608 483
a 608 489
a 608 491
a 608 993
a 608 995
a 608 999
a 608 1002
a 608 1005
a 608 1007
a 608 1009
a 608 1013
a 608 1016
a 608 1019
a 608 1022
a 608 1025
a 608 1028
a 608 1032
a 608 1038
a 608 1042
a 608 1047
a 608 1051
a 608 1054
a 608 1058
a 608 1061
a 608 1064
a 608 1067
a 608 1070
a 608 1074
a 608 1077
a 608 1078
a 608 1080
a 608 1082
a 608 1085
a 608 1089
a 608 1091
a 608 1093
a 608 1096
a 608 1116
a 608 600
a 608 1111
a 933 154
a 933 1202
a 933 479
a 936 155
a 936 1203
a 936 489
a 1006 156
a 1006 1204
a 1006 1005
a 1011 157
a 1011 1205
a 1011 1009
a 1072 158
a 1072 1206
a 1072 1070
a 1097 239
a 1097 274
a 1097 1096
a 1207 930
a 1207 1208
a 930 1207
a 930 473
a 1209 931
a 1209 1210
a 931 1209
a 931 475
a 1211 932
a 1211 90
a 932 1211
a 932 477
a 1202 933
a 1202 93
a 1212 934
a 1212 98
a 934 1212
a 934 481
a 1213 935
a 1213 103
a 935 1213
a 935 483
a 1203 936
a 1203 323
a 1214 937
a 1214 107
a 937 1214
a 937 491
a 1215 994
a 1215 163
a 994 1215
a 994 993
a 1216 998
a 1216 604
a 998 1216
a 998 995
a 1217 1000
a 1217 526
a 1000 1217
a 1000 999
a 1218 1004
a 1218 618
a 1004 1218
a 1004 1002
a 1204 1006
a 1204 169
a 1219 1008
a 1219 997
a 1008 1219
a 1008 1007
a 1205 1011
a 1205 754
a 1220 1015
a 1220 178
a 1015 1220
a 1015 1013
a 1221 1018
a 1221 856
a 1018 1221
a 1018 1016
a 1222 186
a 1222 621
a 186 1222
a 186 22
a 186 1019
a 874 1024
a 874 1010
a 874 869
a 1024 874
a 1024 1022
a 1223 1027
a 1223 187
a 1027 1223
a 1027 1025
a 1224 1031
a 1224 1017
a 1031 1224
a 1031 1028
a 1225 1034
a 1225 1021
a 1034 1225
a 1034 1032
a 1226 1037
a 1226 1023
a 1037 1226
a 1037 1035
a 1227 1041
a 1227 1026
a 1041 1227
a 1041 1038
a 1228 1045
a 1228 1030
a 1045 1228
a 1045 1042
a 704 1050
a 704 1033
a 704 699
a 1050 704
a 1050 1047
a 1229 1053
a 1229 826
a 1053 1229
a 1053 1051
a 1230 1057
a 1230 1040
a 1057 1230
a 1057 1054
a 1231 1060
a 1231 1044
a 1060 1231
a 1060 1058
a 1232 1063
a 1232 1049
a 1063 1232
a 1063 1061
a 1233 1066
a 1233 860
a 1066 1233
a 1066 1064
a 1234 212
a 1234 1056
a 212 1234
a 212 24
a 212 1067
a 1206 1072
a 1206 198
a 1235 1076
a 1235 213
a 1076 1235
a 1076 1148
a 1076 1074
a 1236 529
a 1236 218
a 529 1236
a 529 517
a 529 1077
a 1237 1079
a 1237 1069
a 1079 1237
a 1079 1078
a 1238 1081
a 1238 530
a 1081 1238
a 1081 1080
a 1239 1084
a 1239 551
a 1084 1239
a 1084 1082
a 1240 533
a 1240 638
a 533 1240
a 533 518
a 533 1085
a 1241 1087
a 1241 654
a 1087 1241
a 1087 1086
a 1242 1090
a 1242 534
a 1090 1242
a 1090 1089
a 1243 1092
a 1243 556
a 1092 1243
a 1092 1091
a 1244 1094
a 1244 781
a 1094 1244
a 1094 1093
a 1245 229
a 1245 688
a 229 1245
a 229 26
a 229 1095
a 274 1097
a 274 662
a 274 36
a 1246 1100
a 1246 230
a 1100 1246
a 1100 1099
a 1247 240
a 1247 863
a 240 1247
a 240 27
a 240 1102
a 1248 248
a 1248 629
a 248 1248
a 248 28
a 248 1105
a 1249 1110
a 1249 241
a 1110 1249
a 1110 1107
a 1250 252
a 1250 249
a 252 1250
a 252 29
a 252 1112
a 1251 1118
a 1251 1103
a 1118 1251
a 1118 1116
a 1252 1121
a 1252 253
a 1121 1252
a 1121 1120
a 1253 899
a 1253 1109
a 899 1253
a 899 1201
a 899 40
a 1201 899
a 1201 1117
a 1201 992
a 1201 156
a 1208 1207
a 1208 1114
a 1210 1209
a 1210 1117
a 90 1211
a 90 14
a 90 469
a 93 1202
a 93 15
a 93 471
a 98 1212
a 98 16
a 98 473
a 103 1213
a 103 17
a 103 475
a 323 1203
a 323 288
a 323 477
a 107 1214
a 107 18
a 107 479
a 163 1215
a 163 19
a 163 481
a 604 1216
a 604 599
a 604 483
a 526 1217
a 526 516
a 526 489
a 618 1218
a 618 611
a 618 491
a 169 1204
a 169 20
a 169 993
a 997 1219
a 997 1131
a 997 995
a 754 1205
a 754 747
a 754 999
a 178 1220
a 178 21
a 178 1002
a 856 1221
a 856 846
a 856 1005
a 621 1222
a 621 612
a 621 1007
a 1010 874
a 1010 1134
a 1010 1009
a 187 1223
a 187 22
a 187 1013
a 1017 1224
a 1017 1136
a 1017 1016
a 1021 1225
a 1021 1138
a 1021 1019
a 1023 1226
a 1023 1139
a 1023 1022
a 1026 1227
a 1026 1141
a 1026 1025
a 1030 1228
a 1030 1143
a 1030 1028
a 1033 704
a 1033 1174
a 1033 1032
a 826 1229
a 826 822
a 826 1035
a 1040 1230
a 1040 1145
a 1040 1038
a 1044 1231
a 1044 1175
a 1044 1042
a 1049 1232
a 1049 1176
a 1049 1047
a 860 1233
a 860 847
a 860 1051
a 1056 1234
a 1056 1146
a 1056 1054
a 198 1206
a 198 23
a 198 1058
a 213 1235
a 213 24
a 213 1061
a 218 1236
a 218 25
a 218 1064
a 1069 1237
a 1069 1148
a 1069 1067
a 530 1238
a 530 517
a 530 1070
a 551 1239
a 551 541
a 551 1074
a 638 1240
a 638 632
a 638 1077
a 654 1241
a 654 649
a 654 1078
a 534 1242
a 534 518
a 534 1080
a 556 1243
a 556 542
a 556 1082
a 781 1244
a 781 776
a 781 1085
a 688 1245
a 688 682
a 688 1086
a 662 274
a 662 657
a 662 1089
a 230 1246
a 230 26
a 230 1091
a 863 1247
a 863 848
a 863 1093
a 629 1248
a 629 625
a 629 1095
a 241 1249
a 241 27
a 241 1096
a 249 1250
a 249 28
a 249 1099
a 1103 1251
a 1103 1199
a 1103 1102
a 253 1252
a 253 29
a 253 1105
a 1109 1253
a 1109 1151
a 1109 1107
a 1114 1208
a 1114 1200
a 1114 1112
a 1117 1210
a 1117 1201
a 1117 1116
a 1174 1033
a 1174 245
a 1174 762
a 1174 917
a 1174 1150
a 1174 96
a 1174 101
a 1174 106
a 1174 109
a 1174 110
a 1174 111
a 1174 112
a 1174 113
a 1174 114
a 1174 115
a 1174 116
a 1174 117
a 1174 118
a 1174 119
a 1174 120
a 1174 121
a 1174 122
a 1174 123
a 1174 124
a 1174 125
a 1174 126
a 1174 127
a 1174 128
a 1174 129
a 1174 130
a 1174 131
a 1174 132
a 1174 133
a 1174 134
a 1174 135
a 1174 136
a 1174 137
a 1174 138
a 1174 139
a 1174 140
a 1174 141
a 1174 142
a 1174 143
a 1174 144
a 1174 145
a 1174 146
a 1174 147
a 1174 148
a 1174 149
a 1174 150
a 1174 151
a 1174 152
a 1174 153
a 1174 89
a 1174 154
a 1174 155
a 1174 156
a 1174 157
a 1174 158
a 1175 1044
a 1175 245
a 1175 720
a 1175 721
a 1175 760
a 1175 96
a 1175 101
a 1175 106
a 1175 109
a 1175 110
a 1175 111
a 1175 112
a 1175 113
a 1175 114
a 1175 115
a 1175 116
a 1175 117
a 1175 118
a 1175 119
a 1175 120
a 1175 121
a 1175 122
a 1175 123
a 1175 124
a 1175 125
a 1175 126
a 1175 127
a 1175 128
a 1175 129
a 1175 130
a 1175 131
a 1175 132
a 1175 133
a 1175 134
a 1175 135
a 1175 136
a 1175 137
a 1175 138
a 1175 139
a 1175 140
a 1175 141
a 1175 142
a 1175 143
a 1175 144
a 1175 145
a 1175 146
a 1175 147
a 1175 148
a 1175 149
a 1175 150
a 1175 151
a 1175 152
a 1175 153
a 1175 89
a 1175 154
a 1175 155
a 1175 156
a 1175 157
a 1175 158
a 1176 1049
a 1176 245
a 1176 266
a 1176 132
a 1199 1103
a 1199 242
a 1199 243
a 1199 244
a 1199 245
a 1199 1152
a 1199 96
a 1199 101
a 1199 106
a 1199 109
a 1199 110
a 1199 111
a 1199 112
a 1199 113
a 1199 114
a 1199 115
a 1199 116
a 1199 117
a 1199 118
a 1199 119
a 1199 120
a 1199 121
a 1199 122
a 1199 123
a 1199 124
a 1199 125
a 1199 126
a 1199 127
a 1199 128
a 1199 129
a 1199 130
a 1199 131
a 1199 132
a 1199 133
a 1199 134
a 1199 135
a 1199 136
a 1199 137
a 1199 138
a 1199 139
a 1199 140
a 1199 141
a 1199 142
a 1199 143
a 1199 144
a 1199 145
a 1199 146
a 1199 147
a 1199 148
a 1199 149
a 1199 150
a 1199 151
a 1199 152
a 1199 153
a 1199 89
a 1199 154
a 1199 155
a 1199 156
a 1199 157
a 1199 158
a 1200 1114
a 1200 991
a 1200 96
a 1200 101
a 1200 106
a 1200 109
a 1200 110
a 1200 111
a 1200 112
a 1200 113
a 1200 114
a 1200 115
a 1200 116
a 1200 117
a 1200 118
a 1200 119
a 1200 120
a 1200 121
a 1200 122
a 1200 123
a 1200 124
a 1200 125
a 1200 126
a 1200 127
a 1200 128
a 1200 129
a 1200 130
a 1200 131
a 1200 132
a 1200 133
a 1200 134
a 1200 135
a 1200 136
a 1200 137
a 1200 138
a 1200 139
a 1200 140
a 1200 141
a 1200 142
a 1200 143
a 1200 144
a 1200 145
a 1200 146
a 1200 147
a 1200 148
a 1200 149
a 1200 150
a 1200 151
a 1200 152
a 1200 153
a 1200 89
a 1200 154
a 1200 155
a 1200 156
a 1200 157
a 1200 158
a 833 828
a 833 1120
a 833 1156
a 833 1162
a 537 519
a 537 647
a 537 44
a 537 45
a 537 46
a 537 47
a 537 48
a 537 49
a 537 50
a 537 51
a 537 52
a 537 53
a 537 676
a 537 179
a 537 188
a 537 199
a 537 214
a 537 219
a 537 231
a 537 1101
a 537 1104
a 537 1111
a 537 94
a 537 99
a 537 104
a 537 200
a 537 220
a 537 271
a 537 232
a 537 37
a 537 38
a 537 39
a 647 537
a 647 255
a 647 257
a 647 260
a 647 561
a 647 646
a 647 607
a 647 1155
a 647 1157
a 647 1161
a 647 1163
a 647 757
a 647 623
a 647 865
a 647 640
a 647 1165
a 647 875
a 647 1167
a 647 1169
a 647 675
a 647 1171
a 647 692
a 647 1254
a 647 705
a 647 1173
a 647 719
a 647 728
a 647 866
a 647 740
a 647 264
a 647 761
a 647 267
a 647 1178
a 647 1180
a 647 595
a 647 788
a 647 269
a 647 539
a 647 597
a 647 811
a 647 713
a 647 275
a 647 887
a 647 642
a 647 1106
a 255 30
a 255 647
a 255 44
a 255 45
a 255 46
a 255 47
a 255 48
a 255 49
a 255 50
a 255 51
a 255 52
a 255 53
a 255 676
a 255 179
a 255 188
a 255 199
a 255 214
a 255 219
a 255 231
a 255 1101
a 255 1104
a 255 1111
a 255 94
a 255 99
a 255 104
a 255 200
a 255 220
a 255 271
a 255 232
a 255 37
a 255 289
a 255 290
a 257 31
a 257 647
a 257 44
a 257 45
a 257 46
a 257 47
a 257 48
a 257 49
a 257 50
a 257 51
a 257 52
a 257 53
a 257 676
a 257 179
a 257 188
a 257 199
a 257 214
a 257 219
a 257 231
a 257 1101
a 257 1104
a 257 1111
a 257 94
a 257 99
a 257 104
a 257 200
a 257 220
a 257 271
a 257 232
a 257 37
a 257 337
a 257 338
a 260 32
a 260 647
a 260 44
a 260 45
a 260 46
a 260 47
a 260 48
a 260 49
a 260 50
a 260 51
a 260 52
a 260 53
a 260 676
a 260 179
a 260 188
a 260 199
a 260 214
a 260 219
a 260 231
a 260 1101
a 260 1104
a 260 1111
a 260 94
a 260 99
a 260 104
a 260 200
a 260 220
a 260 271
a 260 232
a 260 37
a 260 381
a 260 382
a 561 543
a 561 647
a 561 44
a 561 45
a 561 46
a 561 47
a 561 48
a 561 49
a 561 50
a 561 51
a 561 52
a 561 53
a 561 676
a 561 179
a 561 188
a 561 199
a 561 214
a 561 219
a 561 231
a 561 1101
a 561 1104
a 561 1111
a 561 94
a 561 99
a 561 104
a 561 200
a 561 220
a 561 271
a 561 232
a 561 37
a 561 425
a 561 426
a 1153 901
a 1153 44
a 1153 45
a 1153 46
a 1153 47
a 1153 48
a 1153 49
a 1153 50
a 1153 51
a 1153 52
a 1153 53
a 1153 676
a 1153 179
a 1153 188
a 1153 199
a 1153 214
a 1153 219
a 1153 231
a 1153 1101
a 1153 1104
a 1153 1111
a 1153 94
a 1153 99
a 1153 104
a 1153 200
a 1153 220
a 1153 271
a 1153 232
a 1153 37
a 1153 461
a 1153 462
a 646 642
a 646 647
a 646 44
a 646 45
a 646 46
a 646 47
a 646 48
a 646 49
a 646 50
a 646 51
a 646 52
a 646 53
a 646 676
a 646 179
a 646 188
a 646 199
a 646 214
a 646 219
a 646 231
a 646 1101
a 646 1104
a 646 1111
a 646 94
a 646 99
a 646 104
a 646 200
a 646 220
a 646 271
a 646 232
a 646 37
a 646 486
a 646 487
a 607 600
a 607 647
a 607 44
a 607 45
a 607 46
a 607 47
a 607 48
a 607 49
a 607 50
a 607 51
a 607 52
a 607 53
a 607 676
a 607 179
a 607 188
a 607 199
a 607 214
a 607 219
a 607 231
a 607 1101
a 607 1104
a 607 1111
a 607 94
a 607 99
a 607 104
a 607 200
a 607 220
a 607 271
a 607 232
a 607 37
a 607 502
a 607 503
a 1155 1154
a 1155 647
a 1155 44
a 1155 45
a 1155 47
a 1155 52
a 1155 676
a 1155 199
a 1155 214
a 1155 219
a 1155 812
a 1155 535
a 1155 231
a 1155 1101
a 1155 1104
a 1155 1111
a 1155 91
a 1155 220
a 1155 536
a 1155 232
a 1155 37
a 1155 521
a 1157 1156
a 1157 647
a 1157 46
a 1157 47
a 1157 48
a 1157 50
a 1157 1001
a 1157 552
a 1157 535
a 1157 557
a 1157 1101
a 1157 1104
a 1157 1111
a 1157 104
a 1157 324
a 1157 553
a 1157 271
a 1157 536
a 1157 558
a 1157 37
a 1157 546
a 1161 1160
a 1161 647
a 1161 51
a 1161 693
a 1161 179
a 1161 199
a 1161 214
a 1161 535
a 1161 1101
a 1161 1104
a 1161 1111
a 1161 605
a 1161 536
a 1161 37
a 1161 564
a 1163 1162
a 1163 647
a 1163 51
a 1163 53
a 1163 179
a 1163 1012
a 1163 199
a 1163 535
a 1163 1101
a 1163 1104
a 1163 1111
a 1163 605
a 1163 180
a 1163 536
a 1163 37
a 1163 565
a 757 748
a 757 647
a 757 857
a 757 535
a 757 557
a 757 231
a 757 1098
a 757 1101
a 757 1104
a 757 1111
a 757 536
a 757 37
a 757 566
a 623 613
a 623 647
a 623 53
a 623 179
a 623 1012
a 623 199
a 623 214
a 623 276
a 623 535
a 623 231
a 623 1101
a 623 1104
a 623 1111
a 623 910
a 623 536
a 623 37
a 623 567
a 865 849
a 865 647
a 865 50
a 865 707
a 865 552
a 865 535
a 865 231
a 865 1101
a 865 1104
a 865 1111
a 865 164
a 865 536
a 865 37
a 865 568
a 640 633
a 640 647
a 640 188
a 640 199
a 640 270
a 640 535
a 640 231
a 640 1101
a 640 1104
a 640 1111
a 640 200
a 640 271
a 640 536
a 640 232
a 640 37
a 640 569
a 1165 1164
a 1165 647
a 1165 722
a 1165 214
a 1165 270
a 1165 535
a 1165 663
a 1165 1101
a 1165 1104
a 1165 1111
a 1165 536
a 1165 37
a 1165 570
a 875 869
a 875 647
a 875 188
a 875 729
a 875 199
a 875 214
a 875 1101
a 875 1104
a 875 1111
a 875 37
a 875 571
a 1167 1166
a 1167 647
a 1167 867
a 1167 214
a 1167 270
a 1167 535
a 1167 1101
a 1167 1104
a 1167 1111
a 1167 914
a 1167 536
a 1167 37
a 1167 572
a 1169 1168
a 1169 647
a 1169 741
a 1169 199
a 1169 535
a 1169 1101
a 1169 1104
a 1169 1111
a 1169 536
a 1169 37
a 1169 573
a 675 671
a 675 647
a 675 265
a 675 557
a 675 689
a 675 663
a 675 231
a 675 1101
a 675 1104
a 675 1111
a 675 916
a 675 37
a 675 574
a 1171 1170
a 1171 647
a 1171 762
a 1171 663
a 1171 1101
a 1171 1104
a 1171 1111
a 1171 37
a 1171 575
a 692 683
a 692 647
a 692 268
a 692 535
a 692 663
a 692 1101
a 692 1104
a 692 1111
a 692 706
a 692 536
a 692 37
a 692 576
a 1255 1254
a 1255 245
a 1255 762
a 1255 917
a 1255 857
a 1254 1255
a 1254 647
a 1254 1046
a 1254 214
a 1254 535
a 1254 663
a 1254 231
a 1254 1101
a 1254 1104
a 1254 1111
a 1254 220
a 1254 536
a 1254 664
a 1254 37
a 1254 577
a 705 699
a 705 647
a 705 179
a 705 720
a 705 214
a 705 270
a 705 535
a 705 663
a 705 231
a 705 1101
a 705 1104
a 705 1111
a 705 721
a 705 536
a 705 37
a 705 578
a 1173 1172
a 1173 647
a 1173 596
a 1173 214
a 1173 219
a 1173 270
a 1173 535
a 1173 663
a 1173 231
a 1173 1101
a 1173 1104
a 1173 1111
a 1173 919
a 1173 536
a 1173 37
a 1173 579
a 719 715
a 719 647
a 719 789
a 719 214
a 719 270
a 719 535
a 719 557
a 719 663
a 719 231
a 719 1098
a 719 1101
a 719 1104
a 719 1111
a 719 536
a 719 37
a 719 580
a 728 724
a 728 647
a 728 179
a 728 272
a 728 214
a 728 270
a 728 535
a 728 663
a 728 1101
a 728 1104
a 728 1111
a 728 920
a 728 200
a 728 271
a 728 536
a 728 37
a 728 581
a 866 850
a 866 647
a 866 179
a 866 199
a 866 214
a 866 552
a 866 535
a 866 663
a 866 231
a 866 1101
a 866 1104
a 866 1111
a 866 200
a 866 271
a 866 536
a 866 37
a 866 582
a 740 735
a 740 647
a 740 51
a 740 53
a 740 693
a 740 179
a 740 199
a 740 214
a 740 276
a 740 535
a 740 1101
a 740 1104
a 740 1111
a 740 605
a 740 755
a 740 180
a 740 215
a 740 220
a 740 271
a 740 536
a 740 37
a 740 583
a 264 33
a 264 647
a 264 214
a 264 219
a 264 535
a 264 231
a 264 1101
a 264 1104
a 264 1111
a 264 220
a 264 536
a 264 37
a 264 584
a 761 749
a 761 647
a 761 52
a 761 53
a 761 214
a 761 1073
a 761 552
a 761 535
a 761 231
a 761 1101
a 761 1104
a 761 1111
a 761 536
a 761 37
a 761 585
a 267 34
a 267 647
a 267 48
a 267 50
a 267 52
a 267 676
a 267 188
a 267 214
a 267 812
a 267 552
a 267 535
a 267 1101
a 267 1104
a 267 1111
a 267 536
a 267 37
a 267 586
a 1178 1177
a 1178 647
a 1178 50
a 1178 52
a 1178 812
a 1178 552
a 1178 535
a 1178 1088
a 1178 1101
a 1178 1104
a 1178 1111
a 1178 324
a 1178 553
a 1178 536
a 1178 37
a 1178 587
a 1180 1179
a 1180 647
a 1180 53
a 1180 179
a 1180 214
a 1180 276
a 1180 535
a 1180 1101
a 1180 1104
a 1180 1111
a 1180 923
a 1180 536
a 1180 37
a 1180 588
a 595 544
a 595 647
a 595 676
a 595 214
a 595 270
a 595 535
a 595 231
a 595 1101
a 595 1104
a 595 1111
a 595 271
a 595 536
a 595 37
a 595 589
a 788 784
a 788 647
a 788 270
a 788 535
a 788 231
a 788 1098
a 788 1101
a 788 1104
a 788 1111
a 788 536
a 788 37
a 788 590
a 269 35
a 269 647
a 269 535
a 269 557
a 269 231
a 269 1101
a 269 1104
a 269 1111
a 269 536
a 269 37
a 269 591
a 539 520
a 539 647
a 539 535
a 539 1088
a 539 1101
a 539 1104
a 539 1111
a 539 536
a 539 37
a 539 592
a 597 545
a 597 647
a 597 557
a 597 689
a 597 231
a 597 1098
a 597 1101
a 597 1104
a 597 1111
a 597 690
a 597 37
a 597 593
a 1182 1181
a 1182 199
a 1182 535
a 1182 663
a 1182 231
a 1182 1098
a 1182 1101
a 1182 1104
a 1182 1111
a 1182 536
a 1182 664
a 1182 37
a 1182 594
a 811 807
a 811 647
a 811 52
a 811 676
a 811 188
a 811 199
a 811 214
a 811 219
a 811 812
a 811 552
a 811 276
a 811 535
a 811 689
a 811 663
a 811 231
a 811 1101
a 811 1104
a 811 1111
a 811 536
a 811 232
a 811 37
a 811 262
a 713 709
a 713 647
a 713 268
a 713 535
a 713 231
a 713 888
a 713 1101
a 713 1104
a 713 1111
a 713 706
a 713 536
a 713 37
a 713 823
a 275 36
a 275 647
a 275 214
a 275 535
a 275 1098
a 275 1101
a 275 1104
a 275 1111
a 275 900
a 275 706
a 275 536
a 275 37
a 275 829
a 1184 1183
a 1184 214
a 1184 535
a 1184 663
a 1184 231
a 1184 1101
a 1184 1104
a 1184 1111
a 1184 536
a 1184 664
a 1184 232
a 1184 37
a 1184 836
a 1186 1185
a 1186 188
a 1186 214
a 1186 219
a 1186 270
a 1186 1101
a 1186 1104
a 1186 1111
a 1186 271
a 1186 37
a 1186 841
a 1188 1187
a 1188 857
a 1188 268
a 1188 789
a 1188 199
a 1188 214
a 1188 219
a 1188 270
a 1188 557
a 1188 663
a 1188 231
a 1188 888
a 1188 1101
a 1188 1104
a 1188 1106
a 1188 1111
a 1188 858
a 1188 861
a 1188 200
a 1188 220
a 1188 271
a 1188 558
a 1188 664
a 1188 37
a 1188 851
a 1190 1189
a 1190 188
a 1190 214
a 1190 1101
a 1190 1104
a 1190 1111
a 1190 189
a 1190 271
a 1190 37
a 1190 870
a 1192 1191
a 1192 789
a 1192 199
a 1192 214
a 1192 557
a 1192 888
a 1192 1101
a 1192 1104
a 1192 1111
a 1192 1115
a 1192 877
a 1194 1193
a 1194 1101
a 1194 1104
a 1194 1119
a 1194 261
a 1196 1195
a 1196 1122
a 1196 37
a 887 882
a 887 647
a 887 900
a 887 37
a 902 1197
a 902 1046
a 902 1101
a 902 1104
a 902 1106
a 902 918
a 902 220
a 902 664
a 902 232
a 902 41
a 905 1198
a 905 1046
a 905 1101
a 905 1104
a 905 1106
a 905 918
a 905 664
a 905 232
a 905 291
a 242 507
a 242 1145
a 242 27
a 242 28
a 242 1199
a 242 1172
a 242 34
a 242 709
a 242 36
a 242 1046
a 242 1101
a 242 1104
a 242 1106
a 242 918
a 242 664
a 242 339
a 243 508
a 243 1145
a 243 27
a 243 28
a 243 1199
a 243 1172
a 243 709
a 243 36
a 243 762
a 243 1046
a 243 720
a 243 596
a 243 663
a 243 1101
a 243 1104
a 243 1106
a 243 916
a 243 917
a 243 918
a 243 721
a 243 664
a 243 232
a 243 383
a 244 509
a 244 1145
a 244 27
a 244 28
a 244 1199
a 244 1172
a 244 709
a 244 91
a 245 510
a 245 1174
a 245 1145
a 245 1175
a 245 1176
a 245 657
a 245 27
a 245 28
a 245 1199
a 245 683
a 245 1255
a 245 1172
a 245 715
a 245 709
a 245 36
a 245 94
a 938 507
a 938 823
a 938 758
a 938 99
a 823 938
a 823 227
a 823 821
a 823 434
a 823 713
a 823 664
a 823 427
a 758 938
a 758 939
a 758 940
a 758 941
a 758 942
a 758 943
a 758 944
a 758 945
a 758 946
a 758 947
a 758 948
a 758 949
a 758 950
a 758 951
a 758 952
a 758 953
a 758 954
a 758 955
a 758 956
a 758 957
a 758 958
a 758 959
a 758 960
a 758 961
a 758 962
a 758 963
a 758 964
a 758 965
a 758 966
a 758 967
a 758 968
a 758 969
a 758 970
a 758 971
a 758 972
a 758 973
a 758 974
a 758 975
a 758 976
a 758 977
a 758 978
a 758 979
a 758 980
a 758 981
a 758 434
a 758 41
a 758 291
a 758 339
a 758 748
a 939 507
a 939 829
a 939 758
a 939 104
a 829 939
a 829 209
a 829 827
a 829 437
a 829 275
a 829 232
a 829 463
a 940 507
a 940 836
a 940 758
a 940 324
a 836 940
a 836 210
a 836 835
a 836 440
a 836 1184
a 836 925
a 836 488
a 941 507
a 941 841
a 941 758
a 941 903
a 841 941
a 841 183
a 841 840
a 841 443
a 841 1186
a 841 926
a 841 504
a 942 507
a 942 851
a 942 758
a 942 164
a 851 942
a 851 195
a 851 845
a 851 446
a 851 1188
a 851 927
a 851 522
a 943 507
a 943 870
a 943 758
a 943 605
a 870 943
a 870 184
a 870 868
a 870 449
a 870 1190
a 870 928
a 870 547
a 944 507
a 944 877
a 944 758
a 944 906
a 877 944
a 877 196
a 877 452
a 877 1192
a 877 538
a 877 601
a 945 507
a 945 883
a 945 758
a 945 907
a 883 945
a 883 237
a 883 881
a 883 455
a 883 256
a 883 614
a 946 508
a 946 891
a 946 758
a 946 908
a 891 946
a 891 890
a 891 258
a 891 626
a 947 508
a 947 896
a 947 758
a 947 909
a 896 947
a 896 895
a 896 261
a 896 634
a 948 508
a 948 39
a 948 758
a 948 755
a 39 948
a 39 1
a 39 2
a 39 3
a 39 537
a 39 643
a 949 508
a 949 290
a 949 758
a 949 180
a 290 949
a 290 81
a 290 277
a 290 54
a 290 255
a 290 650
a 950 508
a 950 338
a 950 758
a 950 858
a 338 950
a 338 82
a 338 326
a 338 57
a 338 257
a 338 658
a 951 508
a 951 382
a 951 758
a 951 910
a 382 951
a 382 83
a 382 370
a 382 60
a 382 260
a 382 667
a 952 508
a 952 426
a 952 758
a 952 911
a 426 952
a 426 84
a 426 414
a 426 63
a 426 561
a 426 672
a 953 508
a 953 462
a 953 758
a 953 189
a 462 953
a 462 85
a 462 458
a 462 66
a 462 1153
a 462 678
a 954 508
a 954 487
a 954 758
a 954 912
a 487 954
a 487 86
a 487 485
a 487 69
a 487 646
a 487 684
a 955 508
a 955 503
a 955 758
a 955 913
a 503 955
a 503 87
a 503 501
a 503 72
a 503 607
a 503 695
a 956 508
a 956 523
a 956 758
a 956 914
a 523 956
a 523 75
a 523 700
a 957 508
a 957 548
a 957 758
a 957 915
a 548 957
a 548 78
a 548 710
a 958 508
a 958 602
a 958 758
a 958 916
a 602 958
a 602 292
a 602 716
a 959 508
a 959 615
a 959 758
a 959 917
a 615 959
a 615 295
a 615 725
a 960 508
a 960 627
a 960 758
a 960 706
a 627 960
a 627 298
a 627 731
a 961 508
a 961 635
a 961 758
a 961 918
a 635 961
a 635 301
a 635 736
a 962 508
a 962 644
a 962 758
a 962 721
a 644 962
a 644 304
a 644 743
a 963 508
a 963 651
a 963 758
a 963 919
a 651 963
a 651 307
a 651 750
a 964 508
a 964 659
a 964 758
a 964 861
a 659 964
a 659 310
a 659 764
a 965 508
a 965 668
a 965 758
a 965 920
a 668 965
a 668 313
a 668 768
a 966 508
a 966 673
a 966 758
a 966 200
a 673 966
a 673 316
a 673 772
a 967 508
a 967 679
a 967 758
a 967 215
a 679 967
a 679 319
a 679 777
a 968 508
a 968 685
a 968 758
a 968 220
a 685 968
a 685 340
a 685 785
a 969 508
a 969 696
a 969 758
a 969 921
a 696 969
a 696 343
a 696 791
a 970 508
a 970 701
a 970 758
a 970 922
a 701 970
a 701 346
a 701 795
a 971 508
a 971 711
a 971 758
a 971 553
a 711 971
a 711 349
a 711 799
a 972 508
a 972 717
a 972 758
a 972 923
a 717 972
a 717 352
a 717 803
a 973 508
a 973 726
a 973 758
a 973 271
a 726 973
a 726 355
a 726 808
a 974 508
a 974 732
a 974 758
a 974 536
a 732 974
a 732 358
a 732 814
a 975 508
a 975 737
a 975 758
a 975 558
a 737 975
a 737 361
a 737 818
a 976 508
a 976 744
a 976 758
a 976 924
a 744 976
a 744 364
a 744 824
a 977 508
a 977 751
a 977 758
a 977 690
a 751 977
a 751 367
a 751 830
a 978 508
a 978 765
a 978 758
a 978 664
a 765 978
a 765 384
a 765 837
a 979 508
a 979 769
a 979 758
a 979 232
a 769 979
a 769 387
a 769 842
a 980 509
a 980 773
a 980 758
a 980 925
a 773 980
a 773 390
a 773 852
a 981 509
a 981 778
a 981 758
a 981 926
a 778 981
a 778 393
a 778 871
a 982 510
a 982 786
a 982 831
a 982 927
a 786 982
a 786 396
a 786 878
a 831 982
a 831 437
a 983 510
a 983 792
a 983 838
a 983 928
a 792 983
a 792 399
a 792 884
a 838 983
a 838 440
a 984 510
a 984 796
a 984 843
a 984 538
a 796 984
a 796 402
a 796 892
a 843 984
a 843 443
a 985 510
a 985 800
a 985 853
a 985 256
a 800 985
a 800 405
a 800 897
a 853 985
a 853 446
a 986 510
a 986 804
a 986 872
a 986 258
a 804 986
a 804 408
a 804 42
a 872 986
a 872 449
a 809 1256
a 809 411
a 809 55
a 1256 809
a 1256 879
a 1256 261
a 879 1256
a 879 452
a 815 1257
a 815 428
a 815 58
a 1257 815
a 1257 885
a 1257 562
a 885 1257
a 885 455
a 819 1258
a 819 431
a 819 61
a 1258 819
a 1258 563
a 44 4
a 44 5
a 44 6
a 44 7
a 44 8
a 44 9
a 44 10
a 44 11
a 44 12
a 44 13
a 44 278
a 44 279
a 44 280
a 44 281
a 44 282
a 44 283
a 44 284
a 44 285
a 44 286
a 44 287
a 44 327
a 44 328
a 44 329
a 44 330
a 44 331
a 44 332
a 44 333
a 44 334
a 44 335
a 44 336
a 44 371
a 44 372
a 44 373
a 44 374
a 44 375
a 44 376
a 44 377
a 44 378
a 44 379
a 44 380
a 44 415
a 44 416
a 44 417
a 44 418
a 44 419
a 44 420
a 44 421
a 44 422
a 44 423
a 44 424
a 44 459
a 44 460
a 44 43
a 44 56
a 44 59
a 44 62
a 44 65
a 44 68
a 44 71
a 44 74
a 44 77
a 44 80
a 44 294
a 44 297
a 44 300
a 44 303
a 44 306
a 44 309
a 44 312
a 44 315
a 44 318
a 44 321
a 44 342
a 44 345
a 44 348
a 44 351
a 44 354
a 44 357
a 44 360
a 44 363
a 44 162
a 44 95
a 44 537
a 44 255
a 44 257
a 44 260
a 44 561
a 44 1153
a 44 646
a 44 607
a 44 1155
a 44 14
a 44 519
a 44 1101
a 44 1104
a 44 471
a 45 4
a 45 5
a 45 6
a 45 7
a 45 8
a 45 9
a 45 10
a 45 11
a 45 12
a 45 13
a 45 278
a 45 279
a 45 280
a 45 281
a 45 282
a 45 283
a 45 284
a 45 285
a 45 286
a 45 287
a 45 327
a 45 328
a 45 329
a 45 330
a 45 331
a 45 332
a 45 333
a 45 334
a 45 335
a 45 336
a 45 371
a 45 372
a 45 373
a 45 374
a 45 375
a 45 376
a 45 377
a 45 378
a 45 379
a 45 380
a 45 415
a 45 416
a 45 417
a 45 418
a 45 419
a 45 420
a 45 421
a 45 422
a 45 423
a 45 424
a 45 459
a 45 460
a 45 43
a 45 56
a 45 59
a 45 62
a 45 65
a 45 68
a 45 71
a 45 74
a 45 77
a 45 80
a 45 294
a 45 297
a 45 300
a 45 303
a 45 306
a 45 309
a 45 312
a 45 315
a 45 318
a 45 321
a 45 342
a 45 345
a 45 348
a 45 351
a 45 354
a 45 357
a 45 360
a 45 363
a 45 1003
a 45 100
a 45 537
a 45 255
a 45 257
a 45 260
a 45 561
a 45 1153
a 45 646
a 45 607
a 45 1155
a 45 15
a 45 30
a 45 1101
a 45 1104
a 45 473
a 45 613
a 46 4
a 46 5
a 46 6
a 46 7
a 46 8
a 46 9
a 46 10
a 46 11
a 46 12
a 46 13
a 46 278
a 46 279
a 46 280
a 46 281
a 46 282
a 46 283
a 46 284
a 46 285
a 46 286
a 46 287
a 46 327
a 46 328
a 46 329
a 46 330
a 46 331
a 46 332
a 46 333
a 46 334
a 46 335
a 46 336
a 46 371
a 46 372
a 46 373
a 46 374
a 46 375
a 46 376
a 46 377
a 46 378
a 46 379
a 46 380
a 46 415
a 46 416
a 46 417
a 46 418
a 46 419
a 46 420
a 46 421
a 46 422
a 46 423
a 46 424
a 46 459
a 46 460
a 46 43
a 46 56
a 46 59
a 46 62
a 46 65
a 46 68
a 46 71
a 46 74
a 46 77
a 46 80
a 46 294
a 46 297
a 46 300
a 46 303
a 46 306
a 46 309
a 46 312
a 46 315
a 46 318
a 46 321
a 46 342
a 46 345
a 46 348
a 46 351
a 46 354
a 46 357
a 46 360
a 46 363
a 46 525
a 46 105
a 46 537
a 46 255
a 46 257
a 46 260
a 46 561
a 46 1153
a 46 646
a 46 607
a 46 1157
a 46 16
a 46 31
a 46 1101
a 46 1104
a 46 475
a 46 849
a 47 4
a 47 5
a 47 6
a 47 7
a 47 8
a 47 9
a 47 10
a 47 11
a 47 12
a 47 13
a 47 278
a 47 279
a 47 280
a 47 281
a 47 282
a 47 283
a 47 284
a 47 285
a 47 286
a 47 287
a 47 327
a 47 328
a 47 329
a 47 330
a 47 331
a 47 332
a 47 333
a 47 334
a 47 335
a 47 336
a 47 371
a 47 372
a 47 373
a 47 374
a 47 375
a 47 376
a 47 377
a 47 378
a 47 379
a 47 380
a 47 415
a 47 416
a 47 417
a 47 418
a 47 419
a 47 420
a 47 421
a 47 422
a 47 423
a 47 424
a 47 459
a 47 460
a 47 43
a 47 56
a 47 59
a 47 62
a 47 65
a 47 68
a 47 71
a 47 74
a 47 77
a 47 80
a 47 294
a 47 297
a 47 300
a 47 303
a 47 306
a 47 309
a 47 312
a 47 315
a 47 318
a 47 321
a 47 342
a 47 345
a 47 348
a 47 351
a 47 354
a 47 357
a 47 360
a 47 363
a 47 514
a 47 617
a 47 325
a 47 537
a 47 255
a 47 257
a 47 260
a 47 561
a 47 1153
a 47 646
a 47 607
a 47 1155
a 47 1157
a 47 17
a 47 32
a 47 1158
a 47 1101
a 47 1104
a 47 477
a 47 633
a 1158 47
a 1158 48
a 1158 50
a 1158 52
a 1158 53
a 1158 676
a 1158 1001
a 1158 693
a 1158 857
a 1158 1012
a 1158 707
a 1158 188
a 1158 722
a 1158 729
a 1158 867
a 1158 741
a 1158 265
a 1158 1046
a 1158 272
a 1158 199
a 1158 214
a 1158 219
a 1158 1073
a 1158 812
a 1158 552
a 1158 276
a 1158 270
a 1158 535
a 1158 557
a 1158 1088
a 1158 689
a 1158 663
a 1158 231
a 1158 1101
a 1158 1104
a 1158 1111
a 1158 1115
a 1158 104
a 1158 324
a 1158 164
a 1158 906
a 1158 907
a 1158 908
a 1158 909
a 1158 755
a 1158 910
a 1158 911
a 1158 189
a 1158 912
a 1158 913
a 1158 914
a 1158 915
a 1158 916
a 1158 706
a 1158 918
a 1158 920
a 1158 200
a 1158 215
a 1158 220
a 1158 921
a 1158 922
a 1158 553
a 1158 923
a 1158 271
a 1158 558
a 1158 690
a 1158 664
a 1158 232
a 1158 1156
a 1158 1119
a 48 4
a 48 5
a 48 6
a 48 7
a 48 8
a 48 9
a 48 10
a 48 11
a 48 12
a 48 13
a 48 278
a 48 279
a 48 280
a 48 281
a 48 282
a 48 283
a 48 284
a 48 285
a 48 286
a 48 287
a 48 327
a 48 328
a 48 329
a 48 330
a 48 331
a 48 332
a 48 333
a 48 334
a 48 335
a 48 336
a 48 371
a 48 372
a 48 373
a 48 374
a 48 375
a 48 376
a 48 377
a 48 378
a 48 379
a 48 380
a 48 415
a 48 416
a 48 417
a 48 418
a 48 419
a 48 420
a 48 421
a 48 422
a 48 423
a 48 424
a 48 459
a 48 460
a 48 43
a 48 56
a 48 59
a 48 62
a 48 65
a 48 68
a 48 71
a 48 74
a 48 77
a 48 80
a 48 294
a 48 297
a 48 300
a 48 303
a 48 306
a 48 309
a 48 312
a 48 315
a 48 318
a 48 321
a 48 342
a 48 345
a 48 348
a 48 351
a 48 354
a 48 357
a 48 360
a 48 363
a 48 524
a 48 168
a 48 108
a 48 537
a 48 255
a 48 257
a 48 260
a 48 561
a 48 1153
a 48 646
a 48 607
a 48 1157
a 48 267
a 48 288
a 48 543
a 48 1158
a 48 1101
a 48 1104
a 48 479
a 49 4
a 49 5
a 49 6
a 49 7
a 49 8
a 49 9
a 49 10
a 49 11
a 49 12
a 49 13
a 49 278
a 49 279
a 49 280
a 49 281
a 49 282
a 49 283
a 49 284
a 49 285
a 49 286
a 49 287
a 49 327
a 49 328
a 49 329
a 49 330
a 49 331
a 49 332
a 49 333
a 49 334
a 49 335
a 49 336
a 49 371
a 49 372
a 49 373
a 49 374
a 49 375
a 49 376
a 49 377
a 49 378
a 49 379
a 49 380
a 49 415
a 49 416
a 49 417
a 49 418
a 49 419
a 49 420
a 49 421
a 49 422
a 49 423
a 49 424
a 49 459
a 49 460
a 49 43
a 49 56
a 49 59
a 49 62
a 49 65
a 49 68
a 49 71
a 49 74
a 49 77
a 49 80
a 49 294
a 49 297
a 49 300
a 49 303
a 49 306
a 49 309
a 49 312
a 49 315
a 49 318
a 49 321
a 49 342
a 49 345
a 49 348
a 49 351
a 49 354
a 49 357
a 49 360
a 49 363
a 49 1014
a 49 165
a 49 537
a 49 255
a 49 257
a 49 260
a 49 561
a 49 1153
a 49 646
a 49 607
a 49 481
a 49 1164
a 50 4
a 50 5
a 50 6
a 50 7
a 50 8
a 50 9
a 50 10
a 50 11
a 50 12
a 50 13
a 50 278
a 50 279
a 50 280
a 50 281
a 50 282
a 50 283
a 50 284
a 50 285
a 50 286
a 50 287
a 50 327
a 50 328
a 50 329
a 50 330
a 50 331
a 50 332
a 50 333
a 50 334
a 50 335
a 50 336
a 50 371
a 50 372
a 50 373
a 50 374
a 50 375
a 50 376
a 50 377
a 50 378
a 50 379
a 50 380
a 50 415
a 50 416
a 50 417
a 50 418
a 50 419
a 50 420
a 50 421
a 50 422
a 50 423
a 50 424
a 50 459
a 50 460
a 50 43
a 50 56
a 50 59
a 50 62
a 50 65
a 50 68
a 50 71
a 50 74
a 50 77
a 50 80
a 50 294
a 50 297
a 50 300
a 50 303
a 50 306
a 50 309
a 50 312
a 50 315
a 50 318
a 50 321
a 50 342
a 50 345
a 50 348
a 50 351
a 50 354
a 50 357
a 50 360
a 50 363
a 50 603
a 50 753
a 50 606
a 50 537
a 50 255
a 50 257
a 50 260
a 50 561
a 50 1153
a 50 646
a 50 607
a 50 1157
a 50 865
a 50 267
a 50 1178
a 50 19
a 50 642
a 50 1158
a 50 1101
a 50 1104
a 50 483
a 50 869
a 51 4
a 51 5
a 51 6
a 51 7
a 51 8
a 51 9
a 51 10
a 51 11
a 51 12
a 51 13
a 51 278
a 51 279
a 51 280
a 51 281
a 51 282
a 51 283
a 51 284
a 51 285
a 51 286
a 51 287
a 51 327
a 51 328
a 51 329
a 51 330
a 51 331
a 51 332
a 51 333
a 51 334
a 51 335
a 51 336
a 51 371
a 51 372
a 51 373
a 51 374
a 51 375
a 51 376
a 51 377
a 51 378
a 51 379
a 51 380
a 51 415
a 51 416
a 51 417
a 51 418
a 51 419
a 51 420
a 51 421
a 51 422
a 51 423
a 51 424
a 51 459
a 51 460
a 51 43
a 51 56
a 51 59
a 51 62
a 51 65
a 51 68
a 51 71
a 51 74
a 51 77
a 51 80
a 51 294
a 51 297
a 51 300
a 51 303
a 51 306
a 51 309
a 51 312
a 51 315
a 51 318
a 51 321
a 51 342
a 51 345
a 51 348
a 51 351
a 51 354
a 51 357
a 51 360
a 51 363
a 51 1020
a 51 527
a 51 537
a 51 255
a 51 257
a 51 260
a 51 561
a 51 1153
a 51 646
a 51 607
a 51 1161
a 51 1163
a 51 740
a 51 599
a 51 600
a 51 1101
a 51 1104
a 51 489
a 52 4
a 52 5
a 52 6
a 52 7
a 52 8
a 52 9
a 52 10
a 52 11
a 52 12
a 52 13
a 52 278
a 52 279
a 52 280
a 52 281
a 52 282
a 52 283
a 52 284
a 52 285
a 52 286
a 52 287
a 52 327
a 52 328
a 52 329
a 52 330
a 52 331
a 52 332
a 52 333
a 52 334
a 52 335
a 52 336
a 52 371
a 52 372
a 52 373
a 52 374
a 52 375
a 52 376
a 52 377
a 52 378
a 52 379
a 52 380
a 52 415
a 52 416
a 52 417
a 52 418
a 52 419
a 52 420
a 52 421
a 52 422
a 52 423
a 52 424
a 52 459
a 52 460
a 52 43
a 52 56
a 52 59
a 52 62
a 52 65
a 52 68
a 52 71
a 52 74
a 52 77
a 52 80
a 52 294
a 52 297
a 52 300
a 52 303
a 52 306
a 52 309
a 52 312
a 52 315
a 52 318
a 52 321
a 52 342
a 52 345
a 52 348
a 52 351
a 52 354
a 52 357
a 52 360
a 52 363
a 52 628
a 52 855
a 52 619
a 52 537
a 52 255
a 52 257
a 52 260
a 52 561
a 52 1153
a 52 646
a 52 607
a 52 1155
a 52 761
a 52 267
a 52 1178
a 52 811
a 52 1158
a 52 1101
a 52 1104
a 52 491
a 52 1166
a 53 4
a 53 5
a 53 6
a 53 7
a 53 8
a 53 9
a 53 10
a 53 11
a 53 12
a 53 13
a 53 278
a 53 279
a 53 280
a 53 281
a 53 282
a 53 283
a 53 284
a 53 285
a 53 286
a 53 287
a 53 327
a 53 328
a 53 329
a 53 330
a 53 331
a 53 332
a 53 333
a 53 334
a 53 335
a 53 336
a 53 371
a 53 372
a 53 373
a 53 374
a 53 375
a 53 376
a 53 377
a 53 378
a 53 379
a 53 380
a 53 415
a 53 416
a 53 417
a 53 418
a 53 419
a 53 420
a 53 421
a 53 422
a 53 423
a 53 424
a 53 459
a 53 460
a 53 43
a 53 56
a 53 59
a 53 62
a 53 65
a 53 68
a 53 71
a 53 74
a 53 77
a 53 80
a 53 294
a 53 297
a 53 300
a 53 303
a 53 306
a 53 309
a 53 312
a 53 315
a 53 318
a 53 321
a 53 342
a 53 345
a 53 348
a 53 351
a 53 354
a 53 357
a 53 360
a 53 363
a 53 636
a 53 620
a 53 170
a 53 537
a 53 255
a 53 257
a 53 260
a 53 561
a 53 1153
a 53 646
a 53 607
a 53 1163
a 53 623
a 53 740
a 53 761
a 53 1180
a 53 1158
a 53 1101
a 53 1104
a 53 993
a 53 1168
a 676 645
a 676 1029
a 676 1133
a 676 537
a 676 255
a 676 257
a 676 260
a 676 561
a 676 1153
a 676 646
a 676 607
a 676 1155
a 676 267
a 676 595
a 676 811
a 676 1158
a 676 1101
a 676 1104
a 676 995
a 676 671
a 1001 652
a 1001 185
a 1001 756
a 1001 1157
a 1001 1158
a 1001 1101
a 1001 1104
a 1001 999
a 1001 1170
a 693 660
a 693 1036
a 693 181
a 693 1161
a 693 740
a 693 747
a 693 748
a 693 1158
a 693 1101
a 693 1104
a 693 1002
a 693 683
a 179 1039
a 179 859
a 179 537
a 179 255
a 179 257
a 179 260
a 179 561
a 179 1153
a 179 646
a 179 607
a 179 1161
a 179 1163
a 179 623
a 179 705
a 179 728
a 179 866
a 179 740
a 179 1180
a 179 21
a 179 613
a 179 1101
a 179 1104
a 179 1005
a 857 1043
a 857 622
a 857 757
a 857 1188
a 857 846
a 857 849
a 857 1158
a 857 1101
a 857 1104
a 857 1007
a 857 1255
a 1012 680
a 1012 1048
a 1012 1135
a 1012 1163
a 1012 623
a 1012 1158
a 1012 1101
a 1012 1104
a 1012 1009
a 707 686
a 707 1052
a 707 190
a 707 865
a 707 1158
a 707 1101
a 707 1104
a 707 1013
a 707 699
a 188 697
a 188 1055
a 188 1137
a 188 537
a 188 255
a 188 257
a 188 260
a 188 561
a 188 1153
a 188 646
a 188 607
a 188 640
a 188 875
a 188 267
a 188 811
a 188 1186
a 188 1190
a 188 22
a 188 869
a 188 1158
a 188 1101
a 188 1104
a 188 1016
a 188 1172
a 722 702
a 722 1059
a 722 703
a 722 1165
a 722 1158
a 722 1101
a 722 1104
a 722 1019
a 722 715
a 729 712
a 729 1062
a 729 1140
a 729 875
a 729 1158
a 729 1101
a 729 1104
a 729 1022
a 729 724
a 867 718
a 867 1065
a 867 1142
a 867 1167
a 867 1158
a 867 1101
a 867 1104
a 867 1025
a 867 850
a 741 727
a 741 1068
a 741 1144
a 741 1169
a 741 1158
a 741 1104
a 741 1028
a 741 735
a 265 733
a 265 1071
a 265 1150
a 265 675
a 265 1158
a 265 1101
a 265 1104
a 265 1032
a 265 33
a 762 1075
a 762 739
a 762 1171
a 762 243
a 762 1174
a 762 1255
a 762 1035
a 762 749
a 268 745
a 268 692
a 268 713
a 268 1188
a 268 822
a 268 699
a 268 1101
a 268 1104
a 268 1038
a 268 34
a 1046 752
a 1046 211
a 1046 760
a 1046 1254
a 1046 902
a 1046 905
a 1046 242
a 1046 243
a 1046 1145
a 1046 1172
a 1046 1158
a 1046 1101
a 1046 1104
a 1046 1042
a 1046 1177
a 720 217
a 720 266
a 720 705
a 720 243
a 720 1175
a 720 715
a 720 1101
a 720 1104
a 720 1047
a 720 1179
a 596 1083
a 596 862
a 596 1173
a 596 243
a 596 1101
a 596 1104
a 596 1051
a 596 544
a 789 528
a 789 1147
a 789 719
a 789 1188
a 789 1192
a 789 847
a 789 850
a 789 1101
a 789 1104
a 789 1054
a 789 784
a 272 779
a 272 550
a 272 201
a 272 728
a 272 1158
a 272 1101
a 272 1104
a 272 1058
a 272 35
a 199 787
a 199 637
a 199 216
a 199 537
a 199 255
a 199 257
a 199 260
a 199 561
a 199 1153
a 199 646
a 199 607
a 199 1155
a 199 1161
a 199 1163
a 199 623
a 199 640
a 199 875
a 199 1169
a 199 866
a 199 740
a 199 1182
a 199 811
a 199 1188
a 199 1192
a 199 23
a 199 33
a 199 1158
a 199 1101
a 199 1104
a 199 1061
a 199 520
a 214 793
a 214 653
a 214 221
a 214 537
a 214 255
a 214 257
a 214 260
a 214 561
a 214 1153
a 214 646
a 214 607
a 214 1155
a 214 1161
a 214 623
a 214 1165
a 214 875
a 214 1167
a 214 1254
a 214 705
a 214 1173
a 214 719
a 214 728
a 214 866
a 214 740
a 214 264
a 214 761
a 214 267
a 214 1180
a 214 595
a 214 811
a 214 275
a 214 1184
a 214 1186
a 214 1188
a 214 1190
a 214 1192
a 214 24
a 214 749
a 214 1158
a 214 1101
a 214 1104
a 214 1064
a 214 545
a 219 797
a 219 532
a 219 1149
a 219 537
a 219 255
a 219 257
a 219 260
a 219 561
a 219 1153
a 219 646
a 219 607
a 219 1155
a 219 1173
a 219 264
a 219 811
a 219 1186
a 219 1188
a 219 25
a 219 34
a 219 1158
a 219 1101
a 219 1104
a 219 1067
a 219 1181
a 1073 801
a 1073 555
a 1073 531
a 1073 761
a 1073 1158
a 1073 1101
a 1073 1104
a 1073 1070
a 812 805
a 812 780
a 812 554
a 812 1155
a 812 267
a 812 1178
a 812 811
a 812 1158
a 812 1101
a 812 1104
a 812 1074
a 812 807
a 552 810
a 552 687
a 552 639
a 552 1157
a 552 865
a 552 866
a 552 761
a 552 267
a 552 1178
a 552 811
a 552 541
a 552 544
a 552 1158
a 552 1101
a 552 1104
a 552 1077
a 552 709
a 276 816
a 276 661
a 276 655
a 276 623
a 276 740
a 276 1180
a 276 811
a 276 1158
a 276 1101
a 276 1104
a 276 1078
a 276 36
a 270 820
a 270 228
a 270 273
a 270 640
a 270 1165
a 270 1167
a 270 705
a 270 1173
a 270 719
a 270 728
a 270 595
a 270 788
a 270 1186
a 270 1188
a 270 649
a 270 35
a 270 1158
a 270 1101
a 270 1104
a 270 1080
a 270 1183
a 535 1108
a 535 559
a 535 1155
a 535 1157
a 535 1161
a 535 1163
a 535 757
a 535 623
a 535 865
a 535 640
a 535 1165
a 535 1167
a 535 1169
a 535 692
a 535 1254
a 535 705
a 535 1173
a 535 719
a 535 728
a 535 866
a 535 740
a 535 264
a 535 761
a 535 267
a 535 1178
a 535 1180
a 535 595
a 535 788
a 535 269
a 535 539
a 535 1182
a 535 811
a 535 713
a 535 275
a 535 1184
a 535 518
a 535 520
a 535 1158
a 535 1101
a 535 1104
a 535 1082
a 535 1185
a 557 832
a 557 1113
a 557 782
a 557 1157
a 557 757
a 557 675
a 557 719
a 557 269
a 557 597
a 557 1188
a 557 1192
a 557 542
a 557 545
a 557 1158
a 557 1101
a 557 1104
a 557 1085
a 557 1187
a 1088 238
a 1088 691
a 1088 1178
a 1088 539
a 1088 1158
a 1088 1086
a 1088 1189
a 689 844
a 689 247
a 689 665
a 689 675
a 689 597
a 689 811
a 689 682
a 689 807
a 689 1158
a 689 1101
a 689 1104
a 689 1089
a 689 1191
a 663 854
a 663 1123
a 663 233
a 663 1165
a 663 675
a 663 1171
a 663 692
a 663 1254
a 663 705
a 663 1173
a 663 719
a 663 728
a 663 866
a 663 1182
a 663 811
a 663 1184
a 663 1188
a 663 243
a 663 657
a 663 709
a 663 1158
a 663 1101
a 663 1104
a 663 1091
a 663 1193
a 231 873
a 231 251
a 231 864
a 231 537
a 231 255
a 231 257
a 231 260
a 231 561
a 231 1153
a 231 646
a 231 607
a 231 1155
a 231 757
a 231 623
a 231 865
a 231 640
a 231 675
a 231 1254
a 231 705
a 231 1173
a 231 719
a 231 866
a 231 264
a 231 761
a 231 595
a 231 788
a 231 269
a 231 597
a 231 1182
a 231 811
a 231 713
a 231 1184
a 231 1188
a 231 26
a 231 36
a 231 1158
a 231 1101
a 231 1104
a 231 1093
a 231 1195
a 888 1124
a 888 630
a 888 713
a 888 1188
a 888 1192
a 888 1095
a 888 882
a 1098 1125
a 1098 246
a 1098 757
a 1098 719
a 1098 788
a 1098 597
a 1098 1182
a 1098 275
a 1098 1101
a 1098 1104
a 1098 1096
a 1101 1126
a 1101 250
a 1101 537
a 1101 255
a 1101 257
a 1101 260
a 1101 561
a 1101 1153
a 1101 646
a 1101 607
a 1101 1155
a 1101 1157
a 1101 1161
a 1101 1163
a 1101 757
a 1101 623
a 1101 865
a 1101 640
a 1101 1165
a 1101 875
a 1101 1167
a 1101 1169
a 1101 675
a 1101 1171
a 1101 692
a 1101 1254
a 1101 705
a 1101 1173
a 1101 719
a 1101 728
a 1101 866
a 1101 740
a 1101 264
a 1101 761
a 1101 267
a 1101 1178
a 1101 1180
a 1101 595
a 1101 788
a 1101 269
a 1101 539
a 1101 597
a 1101 1182
a 1101 811
a 1101 713
a 1101 275
a 1101 1184
a 1101 1186
a 1101 1188
a 1101 1190
a 1101 1192
a 1101 1194
a 1101 902
a 1101 905
a 1101 242
a 1101 243
a 1101 44
a 1101 45
a 1101 46
a 1101 47
a 1101 48
a 1101 50
a 1101 51
a 1101 52
a 1101 53
a 1101 676
a 1101 1001
a 1101 693
a 1101 179
a 1101 857
a 1101 1012
a 1101 707
a 1101 188
a 1101 722
a 1101 729
a 1101 867
a 1101 265
a 1101 268
a 1101 1046
a 1101 720
a 1101 596
a 1101 789
a 1101 272
a 1101 199
a 1101 214
a 1101 219
a 1101 1073
a 1101 812
a 1101 552
a 1101 276
a 1101 270
a 1101 535
a 1101 557
a 1101 689
a 1101 663
a 1101 231
a 1101 1098
a 1101 1158
a 1101 1099
a 1101 1197
a 1104 1127
a 1104 1152
a 1104 537
a 1104 255
a 1104 257
a 1104 260
a 1104 561
a 1104 1153
a 1104 646
a 1104 607
a 1104 1155
a 1104 1157
a 1104 1161
a 1104 1163
a 1104 757
a 1104 623
a 1104 865
a 1104 640
a 1104 1165
a 1104 875
a 1104 1167
a 1104 1169
a 1104 675
a 1104 1171
a 1104 692
a 1104 1254
a 1104 705
a 1104 1173
a 1104 719
a 1104 728
a 1104 866
a 1104 740
a 1104 264
a 1104 761
a 1104 267
a 1104 1178
a 1104 1180
a 1104 595
a 1104 788
a 1104 269
a 1104 539
a 1104 597
a 1104 1182
a 1104 811
a 1104 713
a 1104 275
a 1104 1184
a 1104 1186
a 1104 1188
a 1104 1190
a 1104 1192
a 1104 1194
a 1104 902
a 1104 905
a 1104 242
a 1104 243
a 1104 44
a 1104 45
a 1104 46
a 1104 47
a 1104 48
a 1104 50
a 1104 51
a 1104 52
a 1104 53
a 1104 676
a 1104 1001
a 1104 693
a 1104 179
a 1104 857
a 1104 1012
a 1104 707
a 1104 188
a 1104 722
a 1104 729
a 1104 867
a 1104 741
a 1104 265
a 1104 268
a 1104 1046
a 1104 720
a 1104 596
a 1104 789
a 1104 272
a 1104 199
a 1104 214
a 1104 219
a 1104 1073
a 1104 812
a 1104 552
a 1104 276
a 1104 270
a 1104 535
a 1104 557
a 1104 689
a 1104 663
a 1104 231
a 1104 1098
a 1104 1158
a 1104 1102
a 1104 1198
a 1106 1128
a 1106 254
a 1106 1188
a 1106 902
a 1106 905
a 1106 242
a 1106 243
a 1106 1105
a 1106 647
a 1111 1129
a 1111 989
a 1111 537
a 1111 255
a 1111 257
a 1111 260
a 1111 561
a 1111 1153
a 1111 646
a 1111 607
a 1111 1155
a 1111 1157
a 1111 1161
a 1111 1163
a 1111 757
a 1111 623
a 1111 865
a 1111 640
a 1111 1165
a 1111 875
a 1111 1167
a 1111 1169
a 1111 675
a 1111 1171
a 1111 692
a 1111 1254
a 1111 705
a 1111 1173
a 1111 719
a 1111 728
a 1111 866
a 1111 740
a 1111 264
a 1111 761
a 1111 267
a 1111 1178
a 1111 1180
a 1111 595
a 1111 788
a 1111 269
a 1111 539
a 1111 597
a 1111 1182
a 1111 811
a 1111 713
a 1111 275
a 1111 1184
a 1111 1186
a 1111 1188
a 1111 1190
a 1111 1192
a 1111 1158
a 1111 1107
a 1111 608
a 1115 1130
a 1115 991
a 1115 1192
a 1115 1158
a 1115 1112
a 1115 609
a 1119 259
a 1119 992
a 1119 1194
a 1119 1116
a 1119 1158
a 1122 560
a 1122 834
a 1122 1196
a 1122 1120
a 1122 904
a 900 1132
a 900 929
a 900 275
a 900 887
a 900 40
a 900 1159
a 91 162
a 91 1155
a 91 244
a 91 14
a 91 519
a 91 38
a 91 41
a 91 64
a 94 1003
a 94 537
a 94 255
a 94 257
a 94 260
a 94 561
a 94 1153
a 94 646
a 94 607
a 94 245
a 94 15
a 94 30
a 94 289
a 94 41
a 94 67
a 99 525
a 99 537
a 99 255
a 99 257
a 99 260
a 99 561
a 99 1153
a 99 646
a 99 607
a 99 938
a 99 16
a 99 31
a 99 337
a 99 41
a 99 70
a 104 514
a 104 617
a 104 325
a 104 537
a 104 255
a 104 257
a 104 260
a 104 561
a 104 1153
a 104 646
a 104 607
a 104 1157
a 104 939
a 104 17
a 104 32
a 104 1158
a 104 381
a 104 41
a 104 73
a 324 524
a 324 168
a 324 108
a 324 1157
a 324 1178
a 324 940
a 324 288
a 324 543
a 324 1158
a 324 425
a 324 41
a 324 76
a 903 1014
a 903 941
a 903 461
a 903 41
a 903 79
a 164 603
a 164 753
a 164 606
a 164 865
a 164 942
a 164 19
a 164 642
a 164 1158
a 164 486
a 164 41
a 164 293
a 605 1020
a 605 1161
a 605 1163
a 605 740
a 605 943
a 605 599
a 605 600
a 605 502
a 605 41
a 605 296
a 906 628
a 906 855
a 906 619
a 906 944
a 906 1158
a 906 521
a 906 291
a 906 299
a 907 636
a 907 620
a 907 170
a 907 945
a 907 1158
a 907 546
a 907 291
a 907 302
a 908 645
a 908 1029
a 908 1133
a 908 946
a 908 1158
a 908 564
a 908 291
a 908 305
a 909 652
a 909 185
a 909 756
a 909 947
a 909 1158
a 909 565
a 909 291
a 909 308
a 755 660
a 755 1036
a 755 181
a 755 740
a 755 948
a 755 747
a 755 748
a 755 1158
a 755 566
a 755 291
a 755 311
a 180 1039
a 180 1163
a 180 740
a 180 949
a 180 21
a 180 613
a 180 567
a 180 291
a 180 314
a 858 1043
a 858 1188
a 858 950
a 858 846
a 858 849
a 858 568
a 858 291
a 858 317
a 910 680
a 910 1048
a 910 1135
a 910 623
a 910 951
a 910 1158
a 910 569
a 910 291
a 910 320
a 911 686
a 911 1052
a 911 190
a 911 952
a 911 1158
a 911 570
a 911 291
a 911 341
a 189 697
a 189 1055
a 189 1137
a 189 1190
a 189 953
a 189 22
a 189 869
a 189 1158
a 189 571
a 189 291
a 189 344
a 912 702
a 912 1059
a 912 703
a 912 954
a 912 1158
a 912 572
a 912 291
a 912 347
a 913 712
a 913 1062
a 913 1140
a 913 955
a 913 1158
a 913 573
a 913 291
a 913 350
a 914 718
a 914 1065
a 914 1142
a 914 1167
a 914 956
a 914 1158
a 914 574
a 914 291
a 914 353
a 915 727
a 915 1068
a 915 1144
a 915 957
a 915 1158
a 915 575
a 915 291
a 915 356
a 916 733
a 916 1071
a 916 1150
a 916 675
a 916 243
a 916 958
a 916 1158
a 916 576
a 916 291
a 916 359
a 917 1075
a 917 243
a 917 959
a 917 1174
a 917 1255
a 917 577
a 917 291
a 917 362
a 706 745
a 706 263
a 706 692
a 706 713
a 706 275
a 706 960
a 706 822
a 706 699
a 706 1158
a 706 578
a 706 291
a 706 365
a 918 752
a 918 211
a 918 760
a 918 902
a 918 905
a 918 242
a 918 243
a 918 961
a 918 1145
a 918 1172
a 918 1158
a 918 579
a 918 291
a 918 368
a 721 217
a 721 705
a 721 243
a 721 962
a 721 1175
a 721 715
a 721 580
a 721 291
a 721 385
a 919 1083
a 919 1173
a 919 963
a 919 581
a 919 291
a 919 388
a 861 528
a 861 1188
a 861 964
a 861 847
a 861 850
a 861 582
a 861 291
a 861 391
a 920 779
a 920 550
a 920 201
a 920 728
a 920 965
a 920 1158
a 920 583
a 920 291
a 920 394
a 200 787
a 200 637
a 200 216
a 200 537
a 200 255
a 200 257
a 200 260
a 200 561
a 200 1153
a 200 646
a 200 607
a 200 640
a 200 728
a 200 866
a 200 1188
a 200 966
a 200 23
a 200 33
a 200 1158
a 200 584
a 200 291
a 200 397
a 215 793
a 215 653
a 215 221
a 215 740
a 215 967
a 215 24
a 215 749
a 215 1158
a 215 585
a 215 291
a 215 400
a 220 797
a 220 532
a 220 1149
a 220 537
a 220 255
a 220 257
a 220 260
a 220 561
a 220 1153
a 220 646
a 220 607
a 220 1155
a 220 1254
a 220 740
a 220 264
a 220 1188
a 220 902
a 220 968
a 220 25
a 220 34
a 220 1158
a 220 586
a 220 291
a 220 403
a 921 801
a 921 555
a 921 531
a 921 969
a 921 1158
a 921 587
a 921 291
a 921 406
a 922 805
a 922 780
a 922 554
a 922 970
a 922 1158
a 922 588
a 922 291
a 922 409
a 553 810
a 553 687
a 553 639
a 553 1157
a 553 1178
a 553 971
a 553 541
a 553 544
a 553 1158
a 553 589
a 553 291
a 553 412
a 923 816
a 923 661
a 923 655
a 923 1180
a 923 972
a 923 1158
a 923 590
a 923 291
a 923 429
a 271 820
a 271 228
a 271 273
a 271 537
a 271 255
a 271 257
a 271 260
a 271 561
a 271 1153
a 271 646
a 271 607
a 271 1157
a 271 640
a 271 728
a 271 866
a 271 740
a 271 595
a 271 1186
a 271 1188
a 271 1190
a 271 973
a 271 649
a 271 35
a 271 1158
a 271 591
a 271 291
a 271 432
a 536 1108
a 536 1155
a 536 1157
a 536 1161
a 536 1163
a 536 757
a 536 623
a 536 865
a 536 640
a 536 1165
a 536 1167
a 536 1169
a 536 692
a 536 1254
a 536 705
a 536 1173
a 536 719
a 536 728
a 536 866
a 536 740
a 536 264
a 536 761
a 536 267
a 536 1178
a 536 1180
a 536 595
a 536 788
a 536 269
a 536 539
a 536 1182
a 536 811
a 536 713
a 536 275
a 536 1184
a 536 974
a 536 518
a 536 520
a 536 592
a 536 291
a 536 435
a 558 832
a 558 1113
a 558 782
a 558 1157
a 558 1188
a 558 975
a 558 542
a 558 545
a 558 1158
a 558 593
a 558 291
a 558 438
a 924 238
a 924 976
a 924 594
a 924 291
a 924 441
a 690 844
a 690 247
a 690 665
a 690 597
a 690 977
a 690 682
a 690 807
a 690 1158
a 690 262
a 690 291
a 690 444
a 664 854
a 664 1123
a 664 233
a 664 1254
a 664 1182
a 664 1184
a 664 1188
a 664 902
a 664 905
a 664 242
a 664 243
a 664 978
a 664 657
a 664 709
a 664 1158
a 664 823
a 664 339
a 664 447
a 232 873
a 232 251
a 232 864
a 232 537
a 232 255
a 232 257
a 232 260
a 232 561
a 232 1153
a 232 646
a 232 607
a 232 1155
a 232 640
a 232 811
a 232 1184
a 232 902
a 232 905
a 232 243
a 232 979
a 232 26
a 232 36
a 232 1158
a 232 829
a 232 339
a 232 450
a 925 1124
a 925 980
a 925 836
a 925 383
a 925 453
a 926 1125
a 926 981
a 926 841
a 926 383
a 926 456
a 927 1126
a 927 982
a 927 851
a 927 383
a 927 465
a 928 1127
a 928 983
a 928 870
a 928 383
a 928 467
a 538 1128
a 538 984
a 538 877
a 538 383
a 538 519
a 256 1129
a 256 985
a 256 883
a 256 383
a 256 30
a 258 1130
a 258 986
a 258 891
a 258 383
a 258 31
a 261 259
a 261 1194
a 261 1256
a 261 896
a 261 339
a 261 32
a 562 560
a 562 1257
a 562 427
a 562 64
a 562 543
a 563 1132
a 563 1258
a 563 463
a 563 67
a 563 543
a 37 1
a 37 81
a 37 82
a 37 83
a 37 84
a 37 85
a 37 86
a 37 87
a 37 88
a 37 97
a 37 171
a 37 191
a 37 222
a 37 172
a 37 159
a 37 192
a 37 202
a 37 182
a 37 203
a 37 193
a 37 223
a 37 234
a 37 235
a 37 204
a 37 173
a 37 205
a 37 206
a 37 174
a 37 175
a 37 176
a 37 207
a 37 208
a 37 160
a 37 161
a 37 177
a 37 166
a 37 224
a 37 225
a 37 236
a 37 226
a 37 194
a 37 167
a 37 227
a 37 209
a 37 210
a 37 183
a 37 195
a 37 184
a 37 196
a 37 237
a 37 2
a 37 277
a 37 326
a 37 370
a 37 414
a 37 458
a 37 485
a 37 501
a 37 515
a 37 540
a 37 598
a 37 610
a 37 624
a 37 631
a 37 641
a 37 648
a 37 656
a 37 666
a 37 670
a 37 677
a 37 681
a 37 694
a 37 698
a 37 708
a 37 714
a 37 723
a 37 730
a 37 734
a 37 742
a 37 746
a 37 763
a 37 767
a 37 771
a 37 775
a 37 783
a 37 790
a 37 794
a 37 798
a 37 802
a 37 806
a 37 813
a 37 817
a 37 821
a 37 827
a 37 835
a 37 840
a 37 845
a 37 868
a 37 881
a 37 890
a 37 895
a 37 3
a 37 54
a 37 57
a 37 60
a 37 63
a 37 66
a 37 69
a 37 72
a 37 75
a 37 78
a 37 292
a 37 295
a 37 298
a 37 301
a 37 304
a 37 307
a 37 310
a 37 313
a 37 316
a 37 319
a 37 340
a 37 343
a 37 346
a 37 349
a 37 352
a 37 355
a 37 358
a 37 361
a 37 364
a 37 367
a 37 384
a 37 387
a 37 390
a 37 393
a 37 396
a 37 399
a 37 402
a 37 405
a 37 408
a 37 411
a 37 428
a 37 431
a 37 434
a 37 437
a 37 440
a 37 443
a 37 446
a 37 449
a 37 455
a 37 464
a 37 92
a 37 537
a 37 255
a 37 257
a 37 260
a 37 561
a 37 1153
a 37 646
a 37 607
a 37 1155
a 37 1157
a 37 1161
a 37 1163
a 37 757
a 37 623
a 37 865
a 37 640
a 37 1165
a 37 875
a 37 1167
a 37 1169
a 37 675
a 37 1171
a 37 692
a 37 1254
a 37 705
a 37 1173
a 37 719
a 37 728
a 37 866
a 37 740
a 37 264
a 37 761
a 37 267
a 37 1178
a 37 1180
a 37 595
a 37 788
a 37 269
a 37 539
a 37 597
a 37 1182
a 37 811
a 37 713
a 37 275
a 37 1184
a 37 1186
a 37 1188
a 37 1190
a 37 1196
a 37 887
a 37 1159
a 37 488
a 37 70
a 37 543
a 1159 37
a 1159 1156
a 1159 900
a 38 1
a 38 2
a 38 3
a 38 537
a 38 91
a 38 504
a 38 73
a 38 543
a 289 81
a 289 277
a 289 54
a 289 255
a 289 94
a 289 522
a 289 76
a 289 543
a 337 82
a 337 326
a 337 57
a 337 257
a 337 99
a 337 547
a 337 79
a 337 543
a 381 83
a 381 370
a 381 60
a 381 260
a 381 104
a 381 601
a 381 293
a 381 543
a 425 84
a 425 414
a 425 63
a 425 561
a 425 324
a 425 614
a 425 296
a 425 543
a 461 85
a 461 458
a 461 66
a 461 1153
a 461 903
a 461 626
a 461 299
a 461 543
a 486 86
a 486 485
a 486 69
a 486 646
a 486 164
a 486 634
a 486 302
a 486 543
a 502 87
a 502 501
a 502 72
a 502 607
a 502 605
a 502 643
a 502 305
a 502 543
a 521 88
a 521 515
a 521 75
a 521 1155
a 521 906
a 521 650
a 521 308
a 521 543
a 546 97
a 546 540
a 546 78
a 546 1157
a 546 907
a 546 658
a 546 311
a 546 543
a 564 171
a 564 598
a 564 292
a 564 1161
a 564 908
a 564 667
a 564 314
a 564 543
a 565 191
a 565 610
a 565 295
a 565 1163
a 565 909
a 565 672
a 565 317
a 565 543
a 566 222
a 566 624
a 566 298
a 566 757
a 566 755
a 566 678
a 566 320
a 566 543
a 567 172
a 567 631
a 567 301
a 567 623
a 567 180
a 567 684
a 567 341
a 567 543
a 568 159
a 568 641
a 568 304
a 568 865
a 568 858
a 568 695
a 568 344
a 568 543
a 569 192
a 569 648
a 569 307
a 569 640
a 569 910
a 569 700
a 569 347
a 569 543
a 570 202
a 570 656
a 570 310
a 570 1165
a 570 911
a 570 710
a 570 350
a 570 543
a 571 182
a 571 666
a 571 313
a 571 875
a 571 189
a 571 716
a 571 353
a 571 543
a 572 203
a 572 670
a 572 316
a 572 1167
a 572 912
a 572 725
a 572 356
a 572 543
a 573 193
a 573 677
a 573 319
a 573 1169
a 573 913
a 573 731
a 573 359
a 573 543
a 574 223
a 574 681
a 574 340
a 574 675
a 574 914
a 574 736
a 574 362
a 574 543
a 575 234
a 575 694
a 575 343
a 575 1171
a 575 915
a 575 743
a 575 365
a 575 543
a 576 235
a 576 698
a 576 346
a 576 692
a 576 916
a 576 750
a 576 368
a 576 543
a 577 204
a 577 708
a 577 349
a 577 1254
a 577 917
a 577 764
a 577 385
a 577 543
a 578 173
a 578 714
a 578 352
a 578 705
a 578 706
a 578 768
a 578 388
a 578 543
a 579 205
a 579 723
a 579 355
a 579 1173
a 579 918
a 579 772
a 579 391
a 579 543
a 580 206
a 580 730
a 580 358
a 580 719
a 580 721
a 580 777
a 580 394
a 580 543
a 581 174
a 581 734
a 581 361
a 581 728
a 581 919
a 581 785
a 581 397
a 581 543
a 582 175
a 582 742
a 582 364
a 582 866
a 582 861
a 582 791
a 582 400
a 582 543
a 583 176
a 583 746
a 583 367
a 583 740
a 583 920
a 583 795
a 583 403
a 583 543
a 584 207
a 584 763
a 584 384
a 584 264
a 584 200
a 584 799
a 584 406
a 584 543
a 585 208
a 585 767
a 585 387
a 585 761
a 585 215
a 585 803
a 585 409
a 585 543
a 586 160
a 586 771
a 586 390
a 586 267
a 586 220
a 586 808
a 586 412
a 586 543
a 587 161
a 587 775
a 587 393
a 587 1178
a 587 921
a 587 814
a 587 429
a 587 543
a 588 177
a 588 783
a 588 396
a 588 1180
a 588 922
a 588 818
a 588 432
a 588 543
a 589 166
a 589 790
a 589 399
a 589 595
a 589 553
a 589 824
a 589 435
a 589 543
a 590 224
a 590 794
a 590 402
a 590 788
a 590 923
a 590 830
a 590 438
a 590 543
a 591 225
a 591 798
a 591 405
a 591 269
a 591 271
a 591 837
a 591 441
a 591 543
a 592 236
a 592 802
a 592 408
a 592 539
a 592 536
a 592 842
a 592 444
a 592 543
a 593 226
a 593 806
a 593 411
a 593 597
a 593 558
a 593 852
a 593 447
a 593 543
a 594 194
a 594 813
a 594 428
a 594 1182
a 594 924
a 594 871
a 594 450
a 594 543
a 262 167
a 262 817
a 262 431
a 262 811
a 262 690
a 262 61
a 262 32
a 262 543
a 759 464
a 759 1160
a 759 748
a 904 41
a 904 291
a 904 339
a 904 1160
a 904 1122
a 609 642
a 609 600
a 609 1154
a 609 1115
