p sp 125 282
a 1 2
a 1 3
a 2 1
a 2 4
a 4 2
a 4 5
a 6 3
a 6 7
a 6 8
a 3 6
a 3 9
a 3 1
a 9 3
a 9 7
a 9 10
a 7 6
a 7 9
a 7 11
a 8 6
a 8 12
a 8 10
a 13 14
a 13 15
a 14 13
a 14 16
a 14 17
a 14 18
a 16 14
a 16 19
a 17 14
a 17 20
a 17 21
a 18 14
a 18 22
a 18 23
a 24 25
a 24 26
a 24 27
a 24 28
a 24 29
a 25 24
a 25 30
a 25 31
a 30 25
a 30 32
a 31 25
a 33 34
a 33 35
a 34 33
a 34 36
a 36 34
a 36 37
a 38 39
a 38 40
a 39 38
a 39 41
a 41 39
a 41 42
a 43 40
a 43 44
a 43 45
a 40 43
a 40 46
a 40 38
a 46 40
a 46 44
a 46 47
a 44 43
a 44 46
a 44 48
a 45 43
a 45 49
a 45 10
a 50 20
a 50 51
a 20 50
a 20 17
a 26 24
a 26 52
a 26 53
a 52 26
a 52 54
a 53 26
a 55 56
a 55 57
a 56 55
a 56 58
a 58 56
a 58 59
a 11 60
a 11 7
a 60 11
a 60 61
a 61 60
a 61 62
a 10 9
a 10 8
a 10 45
a 10 63
a 10 47
a 64 22
a 64 65
a 22 64
a 22 18
a 27 24
a 27 66
a 27 67
a 66 27
a 66 68
a 67 27
a 69 70
a 69 71
a 70 69
a 70 72
a 72 70
a 72 73
a 48 74
a 48 44
a 74 48
a 74 75
a 75 74
a 75 76
a 47 46
a 47 10
a 47 77
a 78 79
a 78 80
a 79 78
a 79 81
a 81 79
a 81 82
a 28 24
a 28 83
a 29 24
a 84 85
a 84 86
a 85 84
a 85 87
a 85 88
a 87 85
a 87 89
a 88 85
a 88 89
a 88 90
a 91 92
a 91 93
a 92 91
a 92 32
a 32 92
a 32 30
a 32 54
a 32 83
a 15 13
a 15 93
a 93 15
a 93 91
a 19 16
a 19 94
a 94 19
a 94 12
a 86 84
a 86 95
a 95 86
a 95 96
a 96 95
a 96 97
a 5 4
a 5 98
a 97 96
a 97 99
a 99 97
a 99 100
a 98 5
a 98 100
a 100 98
a 100 99
a 12 94
a 12 8
a 54 32
a 54 101
a 54 52
a 54 68
a 54 83
a 83 32
a 83 54
a 83 68
a 83 102
a 83 28
a 89 87
a 89 35
a 89 88
a 35 89
a 35 33
a 103 101
a 103 104
a 101 103
a 101 54
a 51 50
a 51 104
a 104 51
a 104 103
a 21 17
a 21 105
a 105 21
a 105 49
a 37 36
a 37 106
a 42 41
a 42 107
a 106 37
a 106 108
a 108 106
a 108 109
a 107 42
a 107 109
a 109 107
a 109 108
a 49 105
a 49 45
a 68 54
a 68 110
a 68 66
a 68 83
a 57 111
a 57 55
a 111 57
a 112 110
a 112 113
a 110 112
a 110 68
a 65 64
a 65 113
a 113 65
a 113 112
a 23 18
a 23 114
a 114 23
a 114 63
a 59 58
a 59 115
a 62 61
a 62 116
a 115 59
a 115 117
a 117 115
a 117 118
a 116 62
a 116 118
a 118 116
a 118 117
a 63 114
a 63 10
a 90 88
a 90 71
a 71 90
a 71 69
a 119 102
a 119 120
a 102 119
a 102 83
a 80 78
a 80 120
a 120 80
a 120 119
a 82 81
a 82 121
a 121 82
a 121 77
a 73 72
a 73 122
a 76 75
a 76 123
a 122 73
a 122 124
a 124 122
a 124 125
a 123 76
a 123 125
a 125 123
a 125 124
a 77 121
a 77 47
