p sp 90 192
a 1 2
a 1 3
a 1 4
a 2 1
a 5 6
a 5 7
a 5 8
a 6 5
a 9 10
a 9 11
a 9 12
a 10 9
a 13 14
a 13 15
a 13 16
a 14 13
a 17 18
a 17 4
a 17 19
a 18 17
a 20 21
a 20 8
a 20 22
a 21 20
a 23 24
a 23 25
a 23 26
a 24 23
a 24 27
a 27 24
a 27 28
a 27 29
a 30 31
a 30 32
a 30 33
a 31 30
a 31 34
a 34 31
a 34 35
a 34 36
a 37 38
a 37 39
a 37 25
a 38 37
a 40 41
a 40 42
a 40 32
a 41 40
a 43 44
a 43 45
a 43 46
a 44 43
a 47 48
a 47 49
a 47 50
a 48 47
a 28 27
a 35 34
a 51 52
a 51 53
a 51 54
a 52 51
a 52 55
a 55 52
a 55 56
a 55 57
a 58 59
a 58 60
a 58 61
a 59 58
a 62 63
a 62 64
a 62 65
a 63 62
a 66 67
a 66 68
a 66 54
a 67 66
a 12 3
a 12 69
a 12 9
a 3 12
a 3 70
a 3 1
a 70 3
a 70 71
a 16 7
a 16 72
a 16 13
a 7 16
a 7 73
a 7 5
a 73 7
a 73 74
a 11 9
a 11 46
a 11 75
a 46 11
a 46 43
a 75 11
a 15 13
a 15 50
a 15 76
a 50 15
a 50 47
a 76 15
a 4 39
a 4 1
a 4 17
a 39 4
a 39 37
a 8 42
a 8 5
a 8 20
a 42 8
a 42 40
a 29 45
a 29 77
a 29 27
a 45 29
a 45 43
a 45 78
a 78 45
a 36 49
a 36 79
a 36 34
a 49 36
a 49 47
a 49 80
a 80 49
a 25 60
a 25 37
a 25 23
a 60 25
a 60 58
a 32 64
a 32 40
a 32 30
a 64 32
a 64 62
a 53 81
a 53 61
a 53 51
a 81 53
a 81 56
a 56 81
a 56 65
a 56 55
a 68 82
a 68 61
a 68 66
a 82 68
a 69 12
a 69 71
a 72 16
a 72 74
a 71 69
a 71 70
a 74 72
a 74 73
a 19 17
a 22 20
a 77 29
a 77 83
a 77 84
a 79 36
a 79 85
a 79 86
a 26 23
a 33 30
a 83 77
a 84 77
a 85 79
a 86 79
a 61 58
a 61 53
a 61 68
a 65 62
a 65 56
a 65 87
a 87 65
a 87 88
a 54 51
a 54 66
a 54 89
a 57 55
a 57 88
a 57 90
a 88 87
a 88 57
a 89 54
a 90 57
