p sp 494 1172
a 1 2
a 1 3
a 1 4
a 2 1
a 2 5
a 2 6
a 2 7
a 2 8
a 2 9
a 3 1
a 3 10
a 4 1
a 4 11
a 12 13
a 13 12
a 13 14
a 13 15
a 13 16
a 13 17
a 13 18
a 19 20
a 19 21
a 20 19
a 20 22
a 21 19
a 21 23
a 14 13
a 15 13
a 15 17
a 16 13
a 16 24
a 17 13
a 17 25
a 17 15
a 17 26
a 17 27
a 17 28
a 18 13
a 18 29
a 30 31
a 31 30
a 31 32
a 31 33
a 34 35
a 34 36
a 35 34
a 35 37
a 35 38
a 35 22
a 36 34
a 39 40
a 39 41
a 39 42
a 39 43
a 40 39
a 41 39
a 42 39
a 42 44
a 42 45
a 42 46
a 42 43
a 43 39
a 43 42
a 47 48
a 48 47
a 48 49
a 48 50
a 48 51
a 48 52
a 53 54
a 53 29
a 54 53
a 54 55
a 54 56
a 54 57
a 54 58
a 54 59
a 54 60
a 29 53
a 29 26
a 29 18
a 61 62
a 61 63
a 62 61
a 62 64
a 62 65
a 63 61
a 63 66
a 63 67
a 63 68
a 63 69
a 5 70
a 5 71
a 5 2
a 70 5
a 71 5
a 6 2
a 7 2
a 7 72
a 7 73
a 7 74
a 7 75
a 8 2
a 9 2
a 9 76
a 72 7
a 73 7
a 74 7
a 74 77
a 74 78
a 75 7
a 75 79
a 80 81
a 80 82
a 81 80
a 81 82
a 81 83
a 81 84
a 82 80
a 82 81
a 82 85
a 83 81
a 83 86
a 83 87
a 83 88
a 84 81
a 84 89
a 90 91
a 91 90
a 91 92
a 91 93
a 92 91
a 92 94
a 93 91
a 93 95
a 96 97
a 96 98
a 97 96
a 97 99
a 98 96
a 100 101
a 101 100
a 101 102
a 101 103
a 102 101
a 102 104
a 102 105
a 102 106
a 102 107
a 103 101
a 103 76
a 103 108
a 109 110
a 109 111
a 110 109
a 110 112
a 111 109
a 111 113
a 114 23
a 23 114
a 23 115
a 23 21
a 115 23
a 116 46
a 116 117
a 46 116
a 46 42
a 117 116
a 117 118
a 119 120
a 119 121
a 120 119
a 121 119
a 121 122
a 123 67
a 67 123
a 67 50
a 67 63
a 124 95
a 124 125
a 95 124
a 95 93
a 95 126
a 125 124
a 125 127
a 128 129
a 128 130
a 129 128
a 129 131
a 129 132
a 130 128
a 130 133
a 134 77
a 134 135
a 77 134
a 77 136
a 77 74
a 135 134
a 135 137
a 136 77
a 136 138
a 138 136
a 138 139
a 138 140
a 138 141
a 142 143
a 142 144
a 142 145
a 143 142
a 143 146
a 143 147
a 144 142
a 144 148
a 144 149
a 145 142
a 148 150
a 148 144
a 150 148
a 150 151
a 152 153
a 153 152
a 153 154
a 155 156
a 155 157
a 156 155
a 156 158
a 156 159
a 156 160
a 156 157
a 157 155
a 157 156
a 157 26
a 157 161
a 157 162
a 163 154
a 163 164
a 163 165
a 163 147
a 154 163
a 154 153
a 154 147
a 164 163
a 164 146
a 164 166
a 165 163
a 165 167
a 165 168
a 165 169
a 147 163
a 147 143
a 147 32
a 147 154
a 147 170
a 147 161
a 147 162
a 10 3
a 10 171
a 146 143
a 146 86
a 146 87
a 146 164
a 55 54
a 55 172
a 55 58
a 55 173
a 172 55
a 172 174
a 172 175
a 172 176
a 172 177
a 172 178
a 58 55
a 58 54
a 173 55
a 173 25
a 173 27
a 173 177
a 179 180
a 179 32
a 179 181
a 180 179
a 180 182
a 180 183
a 180 184
a 32 179
a 32 31
a 32 147
a 181 179
a 181 185
a 181 186
a 181 107
a 182 180
a 182 127
a 183 180
a 183 187
a 184 180
a 184 188
a 184 189
a 190 191
a 190 192
a 191 190
a 191 193
a 192 190
a 192 194
a 22 20
a 22 35
a 174 172
a 174 177
a 177 174
a 177 172
a 177 27
a 177 173
a 177 195
a 177 196
a 177 197
a 177 198
a 199 200
a 199 201
a 200 199
a 200 202
a 201 199
a 201 203
a 204 51
a 204 205
a 51 204
a 51 206
a 51 48
a 205 204
a 205 207
a 208 209
a 208 99
a 209 208
a 209 210
a 99 208
a 99 97
a 99 178
a 99 107
a 76 9
a 76 103
a 211 212
a 211 213
a 212 211
a 212 214
a 212 178
a 213 211
a 214 212
a 214 215
a 178 212
a 178 99
a 178 216
a 178 172
a 178 217
a 218 219
a 218 220
a 219 218
a 219 221
a 220 218
a 220 222
a 223 224
a 224 223
a 224 225
a 224 226
a 227 228
a 227 229
a 227 230
a 227 231
a 228 227
a 229 227
a 229 232
a 230 227
a 230 233
a 230 234
a 231 227
a 231 235
a 231 236
a 66 237
a 66 113
a 66 63
a 237 66
a 113 66
a 113 111
a 238 239
a 238 240
a 238 241
a 239 238
a 240 238
a 240 242
a 240 241
a 240 243
a 240 244
a 240 245
a 240 246
a 241 238
a 241 240
a 241 247
a 241 248
a 241 249
a 241 250
a 241 251
a 242 240
a 242 243
a 242 252
a 242 253
a 243 242
a 243 240
a 243 254
a 243 118
a 243 255
a 243 256
a 252 242
a 253 242
a 253 257
a 244 240
a 244 258
a 244 259
a 244 260
a 244 261
a 244 262
a 244 263
a 244 264
a 245 240
a 245 195
a 245 196
a 245 197
a 245 246
a 246 240
a 246 245
a 246 265
a 247 241
a 248 241
a 249 241
a 250 241
a 250 266
a 250 267
a 250 268
a 250 269
a 250 270
a 251 241
a 251 271
a 251 215
a 251 272
a 254 243
a 254 273
a 118 243
a 118 117
a 255 243
a 255 274
a 256 243
a 256 275
a 256 44
a 167 276
a 167 277
a 167 165
a 276 167
a 276 278
a 276 169
a 277 167
a 277 168
a 278 276
a 278 279
a 278 280
a 278 168
a 278 281
a 278 169
a 169 276
a 169 278
a 169 165
a 257 131
a 257 253
a 257 52
a 131 257
a 131 129
a 131 207
a 131 202
a 131 282
a 131 65
a 52 257
a 52 48
a 52 69
a 207 131
a 207 205
a 202 131
a 202 200
a 282 131
a 282 283
a 65 131
a 65 62
a 65 112
a 284 285
a 284 286
a 285 284
a 285 287
a 285 286
a 285 89
a 286 284
a 286 288
a 286 285
a 286 289
a 286 290
a 286 291
a 286 292
a 286 293
a 286 294
a 193 191
a 193 170
a 295 296
a 295 297
a 296 295
a 296 298
a 297 295
a 297 299
a 297 300
a 104 102
a 104 301
a 104 302
a 105 102
a 105 303
a 106 102
a 106 271
a 106 304
a 106 11
a 107 102
a 107 99
a 107 181
a 301 104
a 302 104
a 302 305
a 305 302
a 305 27
a 305 306
a 232 229
a 232 49
a 266 250
a 266 307
a 307 266
a 307 308
a 267 250
a 268 250
a 269 250
a 269 298
a 269 309
a 270 250
a 270 310
a 298 269
a 298 296
a 309 269
a 49 232
a 49 48
a 37 35
a 37 94
a 94 37
a 94 92
a 24 16
a 24 175
a 24 198
a 175 24
a 175 172
a 175 311
a 198 24
a 198 177
a 158 156
a 159 156
a 159 312
a 160 156
a 160 313
a 160 314
a 25 173
a 25 17
a 315 316
a 315 317
a 315 318
a 315 319
a 316 315
a 317 315
a 317 320
a 317 321
a 317 322
a 317 323
a 317 324
a 317 325
a 317 326
a 318 315
a 318 327
a 318 328
a 318 329
a 318 330
a 319 315
a 319 331
a 319 328
a 319 332
a 333 334
a 334 333
a 334 171
a 334 335
a 79 336
a 79 75
a 336 79
a 336 337
a 320 317
a 320 325
a 325 320
a 325 317
a 325 338
a 325 339
a 340 279
a 279 340
a 279 341
a 279 342
a 279 278
a 279 281
a 279 343
a 341 279
a 342 279
a 281 279
a 281 278
a 343 279
a 343 344
a 331 319
a 331 345
a 331 332
a 331 326
a 345 331
a 345 346
a 332 331
a 332 319
a 326 331
a 326 317
a 326 346
a 326 141
a 33 31
a 33 347
a 303 105
a 303 348
a 348 303
a 348 215
a 210 209
a 210 215
a 215 210
a 215 348
a 215 214
a 215 349
a 215 350
a 215 251
a 215 304
a 280 278
a 168 278
a 168 277
a 168 165
a 168 166
a 166 168
a 166 164
a 166 344
a 166 289
a 351 352
a 352 351
a 352 335
a 335 352
a 335 334
a 335 353
a 354 355
a 354 356
a 355 354
a 356 354
a 356 357
a 356 216
a 225 216
a 225 224
a 216 225
a 216 356
a 216 358
a 216 178
a 359 360
a 360 359
a 360 361
a 360 362
a 360 259
a 360 260
a 361 360
a 362 360
a 258 244
a 363 261
a 261 363
a 261 244
a 261 364
a 85 82
a 259 360
a 259 244
a 259 365
a 365 259
a 260 360
a 260 244
a 260 366
a 366 260
a 367 368
a 367 312
a 368 367
a 368 369
a 312 367
a 312 159
a 312 370
a 132 129
a 262 244
a 262 308
a 262 371
a 262 372
a 262 373
a 262 374
a 262 375
a 263 244
a 263 376
a 263 371
a 264 244
a 364 261
a 364 377
a 364 28
a 364 378
a 379 380
a 379 381
a 379 382
a 380 379
a 380 383
a 380 384
a 380 385
a 380 386
a 381 379
a 381 387
a 382 379
a 382 388
a 389 112
a 389 133
a 112 389
a 112 110
a 112 221
a 112 65
a 133 389
a 133 130
a 38 35
a 38 26
a 26 38
a 26 390
a 26 29
a 26 157
a 26 17
a 86 146
a 86 391
a 86 83
a 391 86
a 391 87
a 87 146
a 87 391
a 87 83
a 88 83
a 88 287
a 383 392
a 383 380
a 383 386
a 383 393
a 383 394
a 392 383
a 392 60
a 392 306
a 386 383
a 386 380
a 386 395
a 393 383
a 393 396
a 394 383
a 394 397
a 394 398
a 394 399
a 60 392
a 60 54
a 60 310
a 60 400
a 60 398
a 306 392
a 306 305
a 306 59
a 401 222
a 222 401
a 222 220
a 337 402
a 337 336
a 402 337
a 402 139
a 139 402
a 139 308
a 139 138
a 139 403
a 308 139
a 308 307
a 308 262
a 403 139
a 403 404
a 299 300
a 299 297
a 300 299
a 300 297
a 405 406
a 406 405
a 406 407
a 406 188
a 407 406
a 188 406
a 188 184
a 151 150
a 108 103
a 108 408
a 275 256
a 357 356
a 409 313
a 313 409
a 313 160
a 384 380
a 385 380
a 273 410
a 273 254
a 410 273
a 410 411
a 233 230
a 234 230
a 234 265
a 321 317
a 321 412
a 321 413
a 322 317
a 323 317
a 324 317
a 324 414
a 412 321
a 413 321
a 89 84
a 89 288
a 89 285
a 411 410
a 369 368
a 415 78
a 78 415
a 78 74
a 408 108
a 408 397
a 56 54
a 56 416
a 56 417
a 416 56
a 417 56
a 417 418
a 57 54
a 57 419
a 59 54
a 59 420
a 59 421
a 59 422
a 59 306
a 418 417
a 418 423
a 418 28
a 418 424
a 419 57
a 425 288
a 288 425
a 288 286
a 288 89
a 274 426
a 274 255
a 426 274
a 426 283
a 390 26
a 390 427
a 390 428
a 427 390
a 428 390
a 428 429
a 429 428
a 429 314
a 311 175
a 311 430
a 311 431
a 311 432
a 311 433
a 44 42
a 44 256
a 50 67
a 50 48
a 137 271
a 137 135
a 137 11
a 271 137
a 271 106
a 271 434
a 271 435
a 271 436
a 271 251
a 11 137
a 11 4
a 11 106
a 358 216
a 437 438
a 438 437
a 438 347
a 347 438
a 347 33
a 347 439
a 440 68
a 68 440
a 68 441
a 68 63
a 441 68
a 441 235
a 314 160
a 314 442
a 314 429
a 442 314
a 27 305
a 27 443
a 27 444
a 27 173
a 27 177
a 27 370
a 27 17
a 445 387
a 445 446
a 387 445
a 387 381
a 387 400
a 446 445
a 446 398
a 127 182
a 127 447
a 127 125
a 122 121
a 122 370
a 287 88
a 287 285
a 377 364
a 377 448
a 377 449
a 377 450
a 377 28
a 377 451
a 28 364
a 28 377
a 28 418
a 28 17
a 28 452
a 378 364
a 378 451
a 378 453
a 378 454
a 455 456
a 455 194
a 456 455
a 194 455
a 194 192
a 397 408
a 397 394
a 395 386
a 395 457
a 395 458
a 457 395
a 458 395
a 171 10
a 171 459
a 171 334
a 459 171
a 327 318
a 328 318
a 328 319
a 329 318
a 329 272
a 330 318
a 330 414
a 448 377
a 449 377
a 450 377
a 451 377
a 451 460
a 451 378
a 206 51
a 461 400
a 461 399
a 400 461
a 400 387
a 400 60
a 399 461
a 399 394
a 176 172
a 176 462
a 176 463
a 462 176
a 463 176
a 304 106
a 304 215
a 235 441
a 235 231
a 423 418
a 424 418
a 170 147
a 170 193
a 170 464
a 464 170
a 161 147
a 161 157
a 161 465
a 162 147
a 162 157
a 162 466
a 465 161
a 466 162
a 447 127
a 467 186
a 186 467
a 186 430
a 186 181
a 344 166
a 344 343
a 344 468
a 468 344
a 289 166
a 289 286
a 289 469
a 443 27
a 443 470
a 443 471
a 444 27
a 444 472
a 444 473
a 370 27
a 370 122
a 370 312
a 370 69
a 470 443
a 471 443
a 471 474
a 472 444
a 473 444
a 473 474
a 398 446
a 398 60
a 398 394
a 195 177
a 195 245
a 195 475
a 196 177
a 196 245
a 196 476
a 197 177
a 197 245
a 197 477
a 475 195
a 476 196
a 477 197
a 265 246
a 265 234
a 69 370
a 69 52
a 69 63
a 126 95
a 149 144
a 187 183
a 221 219
a 221 112
a 346 345
a 346 326
a 236 231
a 388 382
a 434 271
a 435 271
a 436 271
a 436 217
a 349 215
a 350 215
a 217 436
a 217 178
a 272 251
a 272 329
a 353 335
a 420 59
a 420 478
a 420 479
a 421 59
a 422 59
a 478 420
a 479 420
a 226 224
a 45 42
a 310 60
a 310 480
a 310 270
a 480 310
a 414 324
a 414 330
a 338 325
a 338 140
a 338 481
a 140 338
a 140 138
a 140 452
a 481 338
a 339 325
a 339 482
a 452 140
a 452 28
a 482 339
a 396 393
a 283 426
a 283 282
a 203 201
a 64 62
a 141 483
a 141 326
a 141 138
a 483 141
a 439 347
a 189 184
a 430 185
a 430 186
a 430 311
a 185 430
a 185 484
a 185 181
a 484 185
a 484 485
a 485 484
a 431 311
a 432 311
a 433 311
a 469 289
a 290 286
a 291 286
a 292 286
a 293 286
a 294 286
a 460 451
a 460 453
a 453 460
a 453 378
a 453 486
a 453 454
a 453 487
a 376 488
a 376 263
a 488 376
a 488 404
a 371 262
a 371 263
a 404 403
a 404 488
a 372 262
a 373 262
a 374 262
a 375 262
a 454 378
a 454 453
a 454 489
a 454 490
a 486 453
a 486 487
a 487 453
a 487 486
a 489 454
a 490 454
a 474 491
a 474 471
a 474 473
a 491 474
a 491 492
a 491 493
a 492 491
a 492 494
a 494 492
a 493 491
