p sp 453 2025
a 186 1
a 186 2
a 186 3
a 186 5
a 186 13
a 186 24
a 186 25
a 186 26
a 186 27
a 186 28
a 186 29
a 186 31
a 186 32
a 186 34
a 186 40
a 186 41
a 186 42
a 186 43
a 186 45
a 186 46
a 186 47
a 186 48
a 186 50
a 186 51
a 186 52
a 186 57
a 186 61
a 186 64
a 186 66
a 186 67
a 186 69
a 186 70
a 186 71
a 186 72
a 186 75
a 186 76
a 186 79
a 186 80
a 186 81
a 186 82
a 186 83
a 186 84
a 186 85
a 186 88
a 186 89
a 186 91
a 186 92
a 186 94
a 186 95
a 186 97
a 186 98
a 186 100
a 186 111
a 186 112
a 186 113
a 186 115
a 186 116
a 186 117
a 186 118
a 186 125
a 186 127
a 186 128
a 186 129
a 186 130
a 186 132
a 186 135
a 186 136
a 186 137
a 186 140
a 186 141
a 186 144
a 186 145
a 186 146
a 186 147
a 186 148
a 186 149
a 186 153
a 186 155
a 186 157
a 186 159
a 186 160
a 186 161
a 186 162
a 186 166
a 186 173
a 186 174
a 186 176
a 186 179
a 186 182
a 186 183
a 186 184
a 186 185
a 186 187
a 186 188
a 186 190
a 186 191
a 186 194
a 186 195
a 186 197
a 186 198
a 186 201
a 186 202
a 186 203
a 186 204
a 186 205
a 186 207
a 186 208
a 186 210
a 186 211
a 186 213
a 186 215
a 186 216
a 186 217
a 186 219
a 186 220
a 186 221
a 186 226
a 186 227
a 186 228
a 186 229
a 186 230
a 186 231
a 186 233
a 186 238
a 186 239
a 186 243
a 186 246
a 186 247
a 186 251
a 186 252
a 186 253
a 186 254
a 186 255
a 186 256
a 186 259
a 186 260
a 186 261
a 186 262
a 186 269
a 186 272
a 186 273
a 186 279
a 186 283
a 186 284
a 186 285
a 186 286
a 186 287
a 186 288
a 186 289
a 186 290
a 186 291
a 186 292
a 186 293
a 186 294
a 186 295
a 186 296
a 186 297
a 186 298
a 186 299
a 186 300
a 186 302
a 186 305
a 186 306
a 186 307
a 186 308
a 186 310
a 186 311
a 186 312
a 186 313
a 186 314
a 186 315
a 186 317
a 186 318
a 186 319
a 186 323
a 186 324
a 186 330
a 186 331
a 186 334
a 186 335
a 186 336
a 186 338
a 186 339
a 186 341
a 186 342
a 186 345
a 186 346
a 186 347
a 186 359
a 186 363
a 186 365
a 186 369
a 186 371
a 186 373
a 186 375
a 186 376
a 186 381
a 186 382
a 186 383
a 186 384
a 186 386
a 186 387
a 186 389
a 186 392
a 186 393
a 186 396
a 186 400
a 186 404
a 186 408
a 186 409
a 186 410
a 186 411
a 186 412
a 186 413
a 186 416
a 186 417
a 186 418
a 186 419
a 186 420
a 186 426
a 186 427
a 186 429
a 186 431
a 186 435
a 186 436
a 186 438
a 186 439
a 186 440
a 186 442
a 186 443
a 186 446
a 186 447
a 186 448
a 186 449
a 186 450
a 186 451
a 186 452
a 1 207
a 1 218
a 1 227
a 1 228
a 1 229
a 1 230
a 207 89
a 207 205
a 207 206
a 207 217
a 207 227
a 207 228
a 207 229
a 207 230
a 207 408
a 218 227
a 218 228
a 218 229
a 218 230
a 218 232
a 227 6
a 227 7
a 227 24
a 227 25
a 227 26
a 227 27
a 227 28
a 227 29
a 227 30
a 227 39
a 227 41
a 227 42
a 227 44
a 227 46
a 227 47
a 227 48
a 227 49
a 227 50
a 227 64
a 227 65
a 227 68
a 227 77
a 227 86
a 227 87
a 227 89
a 227 99
a 227 100
a 227 102
a 227 103
a 227 104
a 227 105
a 227 106
a 227 107
a 227 108
a 227 109
a 227 116
a 227 117
a 227 121
a 227 153
a 227 155
a 227 157
a 227 188
a 227 191
a 227 199
a 227 205
a 227 208
a 227 211
a 227 215
a 227 228
a 227 231
a 227 239
a 227 243
a 227 246
a 227 282
a 227 285
a 227 293
a 227 295
a 227 297
a 227 357
a 227 374
a 227 381
a 227 382
a 227 389
a 227 406
a 227 408
a 227 409
a 227 413
a 227 421
a 227 422
a 227 435
a 227 436
a 228 6
a 228 7
a 228 24
a 228 25
a 228 26
a 228 27
a 228 28
a 228 29
a 228 30
a 228 39
a 228 41
a 228 42
a 228 44
a 228 46
a 228 47
a 228 48
a 228 49
a 228 50
a 228 64
a 228 65
a 228 68
a 228 77
a 228 86
a 228 87
a 228 89
a 228 99
a 228 100
a 228 102
a 228 103
a 228 104
a 228 105
a 228 106
a 228 107
a 228 108
a 228 109
a 228 116
a 228 117
a 228 121
a 228 153
a 228 155
a 228 157
a 228 188
a 228 191
a 228 199
a 228 205
a 228 208
a 228 211
a 228 215
a 228 231
a 228 239
a 228 243
a 228 246
a 228 282
a 228 285
a 228 293
a 228 295
a 228 297
a 228 357
a 228 374
a 228 381
a 228 382
a 228 389
a 228 406
a 228 408
a 228 409
a 228 413
a 228 421
a 228 422
a 228 435
a 228 436
a 229 27
a 229 28
a 229 36
a 229 39
a 229 44
a 229 45
a 229 68
a 229 80
a 229 81
a 229 82
a 229 83
a 229 84
a 229 85
a 229 89
a 229 96
a 229 98
a 229 109
a 229 122
a 229 128
a 229 129
a 229 130
a 229 139
a 229 140
a 229 141
a 229 142
a 229 143
a 229 153
a 229 160
a 229 164
a 229 168
a 229 172
a 229 177
a 229 178
a 229 180
a 229 181
a 229 183
a 229 188
a 229 199
a 229 205
a 229 206
a 229 211
a 229 230
a 229 231
a 229 233
a 229 285
a 229 293
a 229 295
a 229 374
a 229 389
a 229 408
a 229 432
a 229 435
a 229 436
a 229 445
a 229 449
a 230 27
a 230 28
a 230 36
a 230 39
a 230 44
a 230 45
a 230 68
a 230 80
a 230 81
a 230 82
a 230 83
a 230 84
a 230 85
a 230 89
a 230 96
a 230 98
a 230 109
a 230 122
a 230 128
a 230 129
a 230 130
a 230 139
a 230 140
a 230 141
a 230 142
a 230 143
a 230 153
a 230 160
a 230 164
a 230 168
a 230 172
a 230 177
a 230 178
a 230 180
a 230 181
a 230 183
a 230 188
a 230 199
a 230 205
a 230 206
a 230 211
a 230 231
a 230 233
a 230 285
a 230 293
a 230 295
a 230 374
a 230 389
a 230 408
a 230 432
a 230 435
a 230 436
a 230 445
a 230 449
a 3 2
a 3 7
a 3 238
a 3 243
a 3 408
a 2 408
a 408 6
a 408 10
a 408 11
a 408 14
a 408 33
a 408 58
a 408 59
a 408 60
a 408 62
a 408 63
a 408 66
a 408 67
a 408 70
a 408 74
a 408 92
a 408 94
a 408 95
a 408 97
a 408 108
a 408 110
a 408 122
a 408 125
a 408 126
a 408 128
a 408 133
a 408 136
a 408 143
a 408 144
a 408 145
a 408 146
a 408 147
a 408 153
a 408 154
a 408 155
a 408 157
a 408 176
a 408 184
a 408 185
a 408 188
a 408 198
a 408 199
a 408 200
a 408 202
a 408 205
a 408 206
a 408 208
a 408 216
a 408 217
a 408 220
a 408 221
a 408 231
a 408 245
a 408 248
a 408 261
a 408 266
a 408 269
a 408 273
a 408 283
a 408 284
a 408 295
a 408 298
a 408 299
a 408 300
a 408 302
a 408 306
a 408 310
a 408 311
a 408 316
a 408 340
a 408 342
a 408 345
a 408 346
a 408 349
a 408 360
a 408 364
a 408 368
a 408 370
a 408 371
a 408 376
a 408 381
a 408 383
a 408 384
a 408 386
a 408 387
a 408 390
a 408 399
a 408 409
a 408 416
a 408 417
a 408 418
a 408 422
a 408 426
a 408 427
a 408 428
a 408 435
a 408 437
a 408 441
a 408 444
a 408 445
a 408 449
a 408 451
a 7 6
a 7 68
a 7 99
a 7 145
a 7 147
a 7 238
a 7 243
a 238 145
a 238 147
a 238 163
a 238 240
a 238 243
a 238 244
a 238 245
a 238 249
a 238 257
a 238 334
a 238 369
a 238 378
a 238 379
a 238 410
a 238 412
a 238 426
a 238 429
a 238 443
a 243 4
a 243 6
a 243 163
a 243 239
a 243 241
a 243 245
a 243 378
a 243 379
a 243 426
a 6 4
a 6 61
a 6 108
a 6 157
a 6 158
a 6 159
a 6 167
a 6 169
a 6 170
a 6 220
a 6 222
a 6 241
a 6 245
a 6 350
a 6 360
a 6 374
a 6 426
a 6 428
a 4 145
a 4 147
a 4 241
a 4 404
a 145 14
a 145 33
a 145 36
a 145 37
a 145 53
a 145 54
a 145 58
a 145 59
a 145 60
a 145 62
a 145 63
a 145 68
a 145 70
a 145 93
a 145 108
a 145 110
a 145 122
a 145 125
a 145 128
a 145 136
a 145 143
a 145 146
a 145 147
a 145 149
a 145 152
a 145 153
a 145 154
a 145 155
a 145 158
a 145 159
a 145 162
a 145 164
a 145 167
a 145 175
a 145 176
a 145 183
a 145 184
a 145 185
a 145 198
a 145 202
a 145 205
a 145 206
a 145 208
a 145 211
a 145 231
a 145 235
a 145 236
a 145 237
a 145 244
a 145 245
a 145 248
a 145 258
a 145 259
a 145 285
a 145 300
a 145 303
a 145 306
a 145 311
a 145 318
a 145 320
a 145 321
a 145 322
a 145 323
a 145 324
a 145 325
a 145 326
a 145 327
a 145 328
a 145 329
a 145 332
a 145 333
a 145 334
a 145 335
a 145 336
a 145 342
a 145 349
a 145 364
a 145 368
a 145 370
a 145 371
a 145 373
a 145 376
a 145 390
a 145 399
a 145 404
a 145 405
a 145 409
a 145 416
a 145 417
a 145 422
a 145 424
a 145 425
a 145 427
a 145 430
a 145 431
a 145 432
a 145 441
a 145 444
a 145 451
a 147 14
a 147 33
a 147 36
a 147 37
a 147 53
a 147 54
a 147 58
a 147 59
a 147 60
a 147 62
a 147 63
a 147 68
a 147 70
a 147 73
a 147 92
a 147 93
a 147 108
a 147 110
a 147 122
a 147 125
a 147 126
a 147 128
a 147 133
a 147 135
a 147 136
a 147 143
a 147 146
a 147 149
a 147 152
a 147 153
a 147 154
a 147 155
a 147 158
a 147 159
a 147 162
a 147 164
a 147 167
a 147 173
a 147 175
a 147 176
a 147 183
a 147 184
a 147 185
a 147 196
a 147 197
a 147 198
a 147 200
a 147 202
a 147 205
a 147 206
a 147 208
a 147 211
a 147 216
a 147 231
a 147 235
a 147 236
a 147 237
a 147 244
a 147 245
a 147 246
a 147 248
a 147 258
a 147 259
a 147 273
a 147 285
a 147 295
a 147 298
a 147 300
a 147 303
a 147 306
a 147 311
a 147 318
a 147 320
a 147 321
a 147 322
a 147 323
a 147 324
a 147 325
a 147 326
a 147 327
a 147 328
a 147 329
a 147 332
a 147 333
a 147 334
a 147 335
a 147 336
a 147 342
a 147 348
a 147 349
a 147 364
a 147 368
a 147 370
a 147 371
a 147 373
a 147 376
a 147 390
a 147 399
a 147 404
a 147 409
a 147 413
a 147 414
a 147 416
a 147 417
a 147 419
a 147 422
a 147 424
a 147 425
a 147 426
a 147 427
a 147 430
a 147 431
a 147 432
a 147 438
a 147 441
a 147 444
a 147 451
a 404 162
a 404 393
a 148 5
a 61 57
a 61 153
a 61 220
a 61 222
a 108 68
a 108 360
a 108 428
a 157 121
a 157 144
a 157 159
a 157 169
a 157 170
a 157 417
a 158 146
a 158 159
a 158 350
a 158 374
a 159 146
a 159 161
a 159 164
a 159 169
a 159 170
a 159 231
a 167 135
a 167 146
a 167 168
a 167 169
a 167 170
a 167 431
a 169 170
a 170 168
a 220 96
a 220 99
a 220 127
a 220 128
a 220 153
a 220 155
a 220 193
a 220 201
a 220 202
a 220 210
a 220 222
a 220 231
a 220 267
a 220 269
a 220 298
a 220 376
a 220 414
a 220 427
a 220 439
a 222 204
a 222 233
a 222 426
a 245 154
a 245 163
a 245 205
a 245 208
a 245 231
a 245 426
a 360 428
a 374 173
a 374 174
a 374 285
a 426 53
a 426 55
a 426 73
a 426 101
a 426 119
a 426 124
a 426 131
a 426 135
a 426 136
a 426 146
a 426 150
a 426 151
a 426 154
a 426 155
a 426 163
a 426 173
a 426 175
a 426 176
a 426 183
a 426 196
a 426 197
a 426 198
a 426 200
a 426 204
a 426 205
a 426 208
a 426 216
a 426 233
a 426 246
a 426 250
a 426 273
a 426 278
a 426 281
a 426 285
a 426 295
a 426 298
a 426 299
a 426 303
a 426 304
a 426 335
a 426 336
a 426 346
a 426 347
a 426 349
a 426 351
a 426 358
a 426 366
a 426 383
a 426 390
a 426 406
a 426 407
a 426 413
a 426 414
a 426 420
a 426 438
a 68 91
a 68 109
a 99 193
a 99 427
a 15 8
a 15 352
a 15 353
a 15 356
a 8 23
a 8 352
a 8 353
a 23 22
a 23 352
a 23 353
a 23 354
a 352 18
a 352 19
a 352 20
a 352 21
a 352 22
a 352 149
a 352 154
a 352 353
a 352 354
a 352 355
a 352 356
a 353 356
a 12 9
a 12 176
a 12 182
a 12 249
a 9 16
a 9 176
a 9 182
a 16 17
a 16 176
a 16 182
a 176 17
a 176 18
a 176 146
a 176 155
a 176 182
a 176 183
a 176 184
a 176 188
a 176 198
a 176 249
a 176 295
a 176 298
a 176 302
a 176 420
a 176 435
a 176 437
a 182 17
a 182 18
a 182 179
a 182 249
a 299 10
a 299 11
a 299 135
a 299 146
a 299 300
a 299 431
a 10 300
a 10 386
a 10 387
a 10 449
a 10 451
a 300 11
a 300 146
a 300 210
a 300 231
a 300 272
a 300 387
a 300 431
a 386 387
a 386 431
a 387 231
a 387 431
a 449 74
a 449 130
a 449 231
a 449 319
a 449 342
a 449 451
a 451 231
a 451 244
a 451 318
a 11 383
a 11 384
a 383 74
a 383 135
a 383 183
a 383 340
a 383 384
a 383 431
a 384 431
a 249 240
a 249 257
a 89 13
a 89 31
a 89 86
a 89 90
a 89 109
a 89 114
a 89 116
a 89 153
a 89 165
a 89 171
a 89 193
a 89 198
a 89 205
a 89 208
a 89 212
a 89 214
a 89 217
a 89 223
a 89 224
a 89 231
a 89 268
a 89 269
a 89 277
a 89 282
a 89 389
a 89 392
a 89 395
a 89 409
a 89 436
a 13 112
a 13 153
a 13 193
a 13 205
a 13 231
a 112 130
a 112 153
a 112 231
a 153 30
a 153 33
a 153 38
a 153 39
a 153 49
a 153 56
a 153 57
a 153 58
a 153 59
a 153 85
a 153 87
a 153 88
a 153 90
a 153 96
a 153 101
a 153 111
a 153 114
a 153 140
a 153 155
a 153 168
a 153 173
a 153 174
a 153 190
a 153 205
a 153 208
a 153 217
a 153 231
a 153 233
a 153 244
a 153 265
a 153 270
a 153 271
a 153 276
a 153 277
a 153 282
a 153 286
a 153 306
a 153 311
a 153 370
a 153 385
a 153 389
a 153 390
a 153 391
a 153 392
a 153 395
a 153 407
a 153 414
a 153 415
a 153 421
a 153 422
a 153 427
a 193 205
a 193 212
a 193 224
a 193 376
a 193 382
a 193 391
a 193 392
a 193 427
a 205 14
a 205 31
a 205 62
a 205 63
a 205 70
a 205 90
a 205 109
a 205 114
a 205 116
a 205 125
a 205 128
a 205 135
a 205 136
a 205 137
a 205 143
a 205 146
a 205 154
a 205 171
a 205 183
a 205 184
a 205 197
a 205 198
a 205 202
a 205 204
a 205 206
a 205 208
a 205 212
a 205 213
a 205 214
a 205 217
a 205 223
a 205 224
a 205 231
a 205 246
a 205 263
a 205 269
a 205 282
a 205 304
a 205 311
a 205 316
a 205 347
a 205 349
a 205 364
a 205 392
a 205 397
a 205 409
a 205 427
a 205 436
a 205 441
a 231 88
a 231 111
a 231 127
a 231 128
a 231 146
a 231 154
a 231 161
a 231 183
a 231 188
a 231 190
a 231 197
a 231 198
a 231 201
a 231 202
a 231 203
a 231 208
a 231 209
a 231 211
a 231 221
a 231 263
a 231 275
a 231 294
a 231 295
a 231 304
a 231 311
a 231 316
a 231 318
a 231 319
a 231 324
a 231 335
a 231 338
a 231 339
a 231 341
a 231 342
a 231 344
a 231 365
a 231 397
a 231 427
a 231 439
a 231 442
a 231 452
a 14 202
a 14 371
a 14 376
a 202 88
a 202 201
a 202 267
a 202 295
a 202 427
a 202 439
a 202 442
a 371 34
a 371 166
a 371 187
a 371 376
a 371 411
a 376 127
a 376 128
a 376 136
a 376 187
a 376 192
a 376 221
a 376 226
a 376 233
a 376 248
a 376 293
a 376 363
a 376 382
a 376 427
a 17 18
a 18 19
a 18 354
a 19 20
a 19 354
a 354 20
a 354 21
a 354 22
a 20 21
a 21 22
a 102 24
a 102 155
a 102 298
a 102 402
a 24 287
a 287 173
a 287 174
a 287 337
a 103 25
a 103 155
a 103 298
a 103 309
a 25 289
a 289 173
a 289 174
a 289 280
a 105 26
a 105 155
a 105 280
a 105 298
a 26 292
a 292 173
a 292 174
a 292 402
a 39 27
a 39 427
a 27 392
a 392 32
a 392 75
a 392 155
a 392 224
a 392 276
a 392 298
a 392 395
a 392 427
a 31 28
a 31 212
a 28 44
a 44 38
a 30 29
a 30 90
a 29 76
a 76 32
a 90 87
a 90 214
a 212 391
a 212 427
a 32 155
a 32 298
a 155 42
a 155 43
a 155 45
a 155 49
a 155 75
a 155 77
a 155 78
a 155 96
a 155 104
a 155 106
a 155 107
a 155 146
a 155 184
a 155 215
a 155 264
a 155 267
a 155 270
a 155 271
a 155 276
a 155 277
a 155 280
a 155 295
a 155 297
a 155 298
a 155 309
a 155 317
a 155 337
a 155 343
a 155 368
a 155 370
a 155 382
a 155 388
a 155 394
a 155 401
a 155 402
a 155 409
a 155 413
a 155 414
a 155 422
a 155 434
a 155 435
a 155 437
a 298 45
a 298 75
a 298 77
a 298 104
a 298 106
a 298 107
a 298 146
a 298 184
a 298 215
a 298 267
a 298 271
a 298 280
a 298 295
a 298 297
a 298 309
a 298 317
a 298 337
a 298 343
a 298 382
a 298 394
a 298 401
a 298 402
a 298 409
a 298 422
a 37 33
a 37 36
a 33 390
a 390 351
a 390 366
a 390 367
a 390 403
a 166 34
a 166 361
a 166 362
a 166 427
a 34 372
a 372 398
a 399 35
a 399 306
a 399 422
a 35 437
a 437 184
a 437 277
a 437 343
a 437 435
a 36 45
a 45 297
a 38 88
a 38 427
a 88 201
a 88 211
a 88 221
a 88 427
a 427 119
a 427 171
a 427 189
a 427 203
a 427 208
a 427 224
a 427 271
a 427 304
a 427 306
a 427 316
a 427 361
a 427 362
a 427 382
a 427 391
a 427 395
a 427 409
a 427 417
a 427 439
a 427 442
a 117 40
a 117 116
a 40 118
a 40 173
a 40 174
a 118 173
a 118 174
a 173 78
a 173 79
a 173 172
a 173 174
a 173 175
a 173 280
a 173 285
a 173 286
a 173 288
a 173 290
a 173 291
a 173 309
a 173 337
a 173 365
a 173 370
a 173 388
a 173 394
a 173 396
a 173 401
a 173 402
a 173 414
a 173 434
a 173 435
a 174 78
a 174 79
a 174 172
a 174 280
a 174 285
a 174 286
a 174 288
a 174 290
a 174 291
a 174 309
a 174 337
a 174 365
a 174 370
a 174 388
a 174 394
a 174 396
a 174 401
a 174 402
a 174 414
a 174 434
a 174 435
a 77 41
a 77 422
a 41 79
a 79 78
a 43 42
a 43 396
a 42 49
a 49 422
a 396 388
a 297 191
a 104 46
a 104 337
a 46 288
a 288 394
a 107 47
a 107 394
a 47 291
a 291 401
a 106 48
a 106 401
a 48 290
a 290 414
a 422 306
a 50 261
a 50 406
a 261 198
a 261 311
a 406 135
a 406 407
a 72 51
a 72 359
a 51 359
a 51 447
a 359 447
a 69 52
a 69 71
a 69 312
a 69 446
a 52 71
a 52 312
a 52 446
a 71 312
a 71 373
a 312 373
a 312 446
a 54 53
a 53 150
a 53 154
a 150 55
a 150 94
a 150 152
a 150 154
a 150 285
a 154 55
a 154 149
a 154 151
a 154 208
a 154 285
a 154 355
a 123 56
a 123 225
a 123 274
a 123 433
a 56 217
a 56 274
a 56 433
a 217 195
a 217 200
a 217 311
a 217 450
a 274 225
a 274 433
a 433 225
a 57 250
a 250 135
a 250 304
a 59 58
a 59 70
a 58 60
a 58 198
a 60 124
a 60 198
a 60 365
a 198 122
a 198 146
a 198 184
a 198 188
a 198 196
a 198 197
a 198 200
a 198 208
a 198 302
a 198 311
a 198 365
a 198 409
a 70 125
a 70 208
a 124 62
a 124 128
a 124 131
a 124 132
a 124 135
a 124 365
a 365 115
a 365 146
a 365 195
a 365 196
a 365 215
a 365 296
a 365 302
a 365 435
a 63 62
a 63 364
a 62 125
a 62 128
a 62 132
a 62 248
a 125 128
a 125 208
a 125 248
a 128 127
a 128 132
a 128 134
a 128 143
a 128 210
a 128 216
a 128 248
a 128 275
a 128 344
a 128 441
a 132 188
a 248 136
a 65 64
a 64 413
a 413 146
a 413 414
a 67 66
a 66 164
a 164 146
a 164 160
a 164 162
a 164 405
a 91 417
a 109 269
a 208 135
a 208 136
a 208 146
a 208 183
a 208 197
a 208 246
a 208 304
a 208 311
a 208 316
a 373 285
a 373 375
a 146 73
a 146 92
a 146 126
a 146 133
a 146 135
a 146 183
a 146 184
a 146 188
a 146 196
a 146 197
a 146 200
a 146 246
a 146 295
a 146 302
a 146 348
a 146 405
a 146 414
a 146 419
a 73 281
a 73 348
a 73 349
a 281 349
a 348 345
a 348 380
a 349 143
a 340 74
a 74 342
a 74 444
a 74 445
a 342 335
a 342 339
a 444 236
a 444 332
a 444 445
a 445 129
a 100 75
a 100 87
a 78 270
a 78 343
a 270 343
a 270 391
a 270 395
a 343 271
a 343 276
a 343 277
a 343 388
a 81 80
a 81 83
a 81 233
a 81 272
a 81 273
a 80 156
a 80 233
a 80 272
a 80 273
a 156 272
a 156 273
a 233 82
a 233 83
a 233 84
a 233 85
a 233 120
a 233 185
a 233 187
a 233 204
a 233 226
a 233 234
a 233 282
a 233 305
a 233 363
a 233 381
a 233 382
a 233 385
a 233 400
a 233 423
a 233 425
a 272 82
a 272 83
a 272 84
a 272 210
a 272 273
a 273 82
a 273 83
a 273 84
a 273 216
a 83 84
a 84 82
a 82 85
a 85 101
a 101 119
a 101 278
a 86 121
a 86 165
a 86 268
a 165 268
a 201 210
a 211 199
a 211 416
a 221 293
a 221 416
a 114 436
a 116 171
a 171 382
a 223 282
a 277 395
a 282 385
a 282 421
a 389 279
a 389 382
a 389 435
a 395 271
a 395 276
a 395 391
a 409 215
a 409 306
a 409 317
a 436 435
a 417 110
a 417 144
a 417 266
a 93 301
a 93 303
a 93 412
a 93 440
a 93 443
a 301 412
a 301 440
a 301 443
a 303 438
a 412 149
a 412 323
a 412 334
a 412 429
a 412 439
a 412 440
a 412 443
a 440 439
a 440 443
a 443 334
a 443 439
a 95 94
a 94 152
a 94 285
a 152 149
a 152 285
a 152 318
a 285 151
a 285 308
a 285 375
a 96 172
a 96 414
a 172 434
a 414 264
a 414 434
a 98 97
a 98 432
a 97 144
a 432 110
a 119 278
a 119 316
a 309 286
a 110 266
a 266 316
a 129 111
a 111 190
a 113 262
a 113 452
a 452 209
a 120 115
a 120 385
a 115 296
a 316 304
a 316 421
a 122 199
a 131 135
a 135 136
a 135 183
a 135 304
a 135 407
a 133 126
a 127 143
a 127 275
a 127 332
a 127 335
a 127 344
a 143 332
a 143 335
a 275 344
a 332 329
a 332 335
a 335 324
a 335 334
a 335 336
a 134 210
a 134 216
a 210 216
a 188 183
a 188 184
a 188 246
a 188 302
a 183 246
a 183 310
a 407 244
a 141 137
a 141 139
a 141 448
a 137 184
a 137 448
a 184 295
a 184 302
a 184 310
a 184 347
a 184 435
a 232 138
a 139 142
a 140 160
a 140 168
a 149 323
a 149 355
a 149 429
a 162 393
a 175 430
a 185 187
a 185 234
a 185 306
a 185 453
a 235 236
a 235 237
a 244 240
a 244 257
a 244 355
a 258 259
a 259 161
a 259 295
a 311 200
a 320 321
a 320 322
a 323 324
a 323 325
a 323 429
a 326 327
a 326 328
a 329 333
a 334 336
a 334 369
a 334 410
a 334 429
a 368 370
a 370 286
a 424 425
a 425 187
a 425 423
a 196 195
a 196 200
a 246 247
a 246 307
a 295 161
a 295 267
a 295 293
a 295 294
a 295 439
a 438 314
a 438 315
a 355 240
a 355 257
a 265 415
a 276 388
a 286 191
a 215 382
a 264 434
a 267 439
a 317 279
a 382 187
a 382 381
a 382 435
a 361 189
a 361 362
a 362 189
a 180 177
a 177 330
a 330 331
a 179 178
a 178 181
a 347 346
a 187 226
a 187 234
a 187 363
a 187 381
a 187 411
a 187 423
a 194 219
a 194 260
a 195 450
a 203 442
a 204 213
a 219 260
a 226 363
a 239 242
a 247 307
a 251 254
a 251 255
a 252 253
a 252 255
a 253 255
a 254 255
a 256 313
a 256 314
a 283 284
a 293 192
a 293 357
a 305 400
a 308 375
a 313 314
a 314 315
a 338 341
a 345 346
a 345 380
a 369 410
a 381 418
a 439 442
a 263 397
a 240 257
a 378 379
a 379 377
a 366 351
a 367 403
