p sp 164 26386
a 1 2
a 1 3
a 1 4
a 1 5
a 1 6
a 1 7
a 1 8
a 1 9
a 1 10
a 1 11
a 1 12
a 1 13
a 1 14
a 1 15
a 1 16
a 1 17
a 1 18
a 1 19
a 1 20
a 1 21
a 1 22
a 1 23
a 1 24
a 1 25
a 1 26
a 1 27
a 1 28
a 1 29
a 1 30
a 1 31
a 1 32
a 1 33
a 1 34
a 1 35
a 1 36
a 1 37
a 1 38
a 1 39
a 1 40
a 1 41
a 1 42
a 1 43
a 1 44
a 1 45
a 1 46
a 1 47
a 1 48
a 1 49
a 1 50
a 1 51
a 1 52
a 1 53
a 1 54
a 1 55
a 1 56
a 1 57
a 1 58
a 1 59
a 1 60
a 1 61
a 1 62
a 1 63
a 1 64
a 1 65
a 1 66
a 1 67
a 1 68
a 1 69
a 1 70
a 1 71
a 1 72
a 1 73
a 1 74
a 1 75
a 1 76
a 1 77
a 1 78
a 1 79
a 1 80
a 1 81
a 1 82
a 1 83
a 1 84
a 1 85
a 1 86
a 1 87
a 1 88
a 1 89
a 1 90
a 1 91
a 1 92
a 1 93
a 1 94
a 1 95
a 1 96
a 1 97
a 1 98
a 1 99
a 1 100
a 1 101
a 1 102
a 1 103
a 1 104
a 1 105
a 1 106
a 1 107
a 1 108
a 1 109
a 1 110
a 1 111
a 1 112
a 1 113
a 1 114
a 1 115
a 1 116
a 1 117
a 1 118
a 1 119
a 1 120
a 1 121
a 1 122
a 1 123
a 1 124
a 1 125
a 1 126
a 1 127
a 1 128
a 1 129
a 1 130
a 1 131
a 1 132
a 1 133
a 1 134
a 1 135
a 1 136
a 1 137
a 1 138
a 1 139
a 1 140
a 1 141
a 1 142
a 1 143
a 1 144
a 1 145
a 1 146
a 1 147
a 1 148
a 1 149
a 1 150
a 1 151
a 1 152
a 1 153
a 1 154
a 1 155
a 1 156
a 1 157
a 1 158
a 1 159
a 1 160
a 1 161
a 1 162
a 1 163
a 1 164
a 2 1
a 2 158
a 2 4
a 2 6
a 2 7
a 2 8
a 2 9
a 2 132
a 2 11
a 2 13
a 2 15
a 2 19
a 2 141
a 2 140
a 2 22
a 2 70
a 2 24
a 2 93
a 2 26
a 2 21
a 2 27
a 2 3
a 2 29
a 2 30
a 2 31
a 2 33
a 2 142
a 2 23
a 2 34
a 2 35
a 2 36
a 2 37
a 2 38
a 2 39
a 2 25
a 2 42
a 2 44
a 2 45
a 2 143
a 2 46
a 2 47
a 2 49
a 2 50
a 2 51
a 2 52
a 2 54
a 2 56
a 2 57
a 2 160
a 2 58
a 2 60
a 2 144
a 2 62
a 2 64
a 2 65
a 2 66
a 2 67
a 2 68
a 2 161
a 2 146
a 2 69
a 2 147
a 2 28
a 2 72
a 2 73
a 2 74
a 2 148
a 2 76
a 2 77
a 2 159
a 2 149
a 2 79
a 2 81
a 2 163
a 2 83
a 2 150
a 2 84
a 2 85
a 2 86
a 2 87
a 2 88
a 2 89
a 2 90
a 2 91
a 2 151
a 2 94
a 2 95
a 2 96
a 2 97
a 2 99
a 2 100
a 2 101
a 2 164
a 2 103
a 2 104
a 2 105
a 2 106
a 2 152
a 2 10
a 2 107
a 2 108
a 2 109
a 2 110
a 2 153
a 2 111
a 2 112
a 2 113
a 2 114
a 2 115
a 2 116
a 2 117
a 2 118
a 2 119
a 2 120
a 2 121
a 2 162
a 2 122
a 2 123
a 2 154
a 2 126
a 2 127
a 2 128
a 2 131
a 2 155
a 2 133
a 2 156
a 2 135
a 2 157
a 2 138
a 2 139
a 2 16
a 2 18
a 2 55
a 2 5
a 2 75
a 2 98
a 2 137
a 2 12
a 2 17
a 2 20
a 2 32
a 2 40
a 2 48
a 2 63
a 2 78
a 2 102
a 2 124
a 2 125
a 2 14
a 2 43
a 2 61
a 2 134
a 2 41
a 2 71
a 2 145
a 2 130
a 2 53
a 2 129
a 2 82
a 2 80
a 3 1
a 3 2
a 3 56
a 3 158
a 3 5
a 3 6
a 3 8
a 3 10
a 3 13
a 3 15
a 3 16
a 3 19
a 3 21
a 3 140
a 3 22
a 3 70
a 3 24
a 3 93
a 3 26
a 3 141
a 3 27
a 3 29
a 3 30
a 3 31
a 3 32
a 3 33
a 3 142
a 3 23
a 3 34
a 3 35
a 3 37
a 3 38
a 3 39
a 3 25
a 3 42
a 3 43
a 3 44
a 3 45
a 3 143
a 3 46
a 3 47
a 3 49
a 3 50
a 3 51
a 3 52
a 3 54
a 3 55
a 3 57
a 3 160
a 3 58
a 3 59
a 3 144
a 3 61
a 3 64
a 3 65
a 3 66
a 3 68
a 3 161
a 3 146
a 3 69
a 3 147
a 3 28
a 3 72
a 3 73
a 3 74
a 3 148
a 3 75
a 3 76
a 3 77
a 3 159
a 3 149
a 3 79
a 3 163
a 3 83
a 3 150
a 3 84
a 3 85
a 3 86
a 3 88
a 3 89
a 3 90
a 3 91
a 3 151
a 3 94
a 3 95
a 3 96
a 3 97
a 3 99
a 3 100
a 3 101
a 3 164
a 3 104
a 3 105
a 3 106
a 3 152
a 3 108
a 3 109
a 3 110
a 3 153
a 3 112
a 3 113
a 3 114
a 3 115
a 3 116
a 3 117
a 3 118
a 3 119
a 3 120
a 3 162
a 3 122
a 3 123
a 3 124
a 3 125
a 3 154
a 3 126
a 3 127
a 3 128
a 3 130
a 3 131
a 3 155
a 3 132
a 3 133
a 3 156
a 3 135
a 3 157
a 3 138
a 3 4
a 3 7
a 3 9
a 3 11
a 3 17
a 3 18
a 3 20
a 3 71
a 3 36
a 3 60
a 3 67
a 3 78
a 3 145
a 3 103
a 3 107
a 3 137
a 3 87
a 3 121
a 3 12
a 3 14
a 3 62
a 3 92
a 3 98
a 3 134
a 3 40
a 3 41
a 3 48
a 3 139
a 3 111
a 3 81
a 3 102
a 3 53
a 3 63
a 3 80
a 3 82
a 3 129
a 4 1
a 4 2
a 4 56
a 4 5
a 4 6
a 4 7
a 4 8
a 4 9
a 4 10
a 4 11
a 4 12
a 4 14
a 4 15
a 4 16
a 4 17
a 4 18
a 4 19
a 4 20
a 4 141
a 4 22
a 4 70
a 4 24
a 4 25
a 4 27
a 4 28
a 4 29
a 4 30
a 4 31
a 4 32
a 4 33
a 4 142
a 4 23
a 4 34
a 4 35
a 4 36
a 4 37
a 4 38
a 4 39
a 4 40
a 4 41
a 4 42
a 4 43
a 4 44
a 4 46
a 4 47
a 4 48
a 4 49
a 4 50
a 4 52
a 4 54
a 4 159
a 4 57
a 4 58
a 4 59
a 4 60
a 4 61
a 4 62
a 4 63
a 4 64
a 4 66
a 4 67
a 4 68
a 4 69
a 4 147
a 4 71
a 4 72
a 4 73
a 4 74
a 4 148
a 4 75
a 4 77
a 4 78
a 4 149
a 4 79
a 4 80
a 4 81
a 4 82
a 4 83
a 4 150
a 4 84
a 4 86
a 4 87
a 4 88
a 4 89
a 4 90
a 4 91
a 4 92
a 4 93
a 4 94
a 4 95
a 4 96
a 4 98
a 4 99
a 4 100
a 4 101
a 4 102
a 4 164
a 4 103
a 4 104
a 4 105
a 4 55
a 4 106
a 4 107
a 4 108
a 4 109
a 4 110
a 4 153
a 4 111
a 4 112
a 4 113
a 4 114
a 4 115
a 4 116
a 4 117
a 4 118
a 4 119
a 4 120
a 4 121
a 4 162
a 4 122
a 4 123
a 4 124
a 4 125
a 4 154
a 4 126
a 4 127
a 4 129
a 4 130
a 4 131
a 4 155
a 4 132
a 4 133
a 4 134
a 4 135
a 4 136
a 4 157
a 4 137
a 4 138
a 4 139
a 4 3
a 4 13
a 4 21
a 4 140
a 4 26
a 4 45
a 4 143
a 4 51
a 4 53
a 4 160
a 4 144
a 4 65
a 4 145
a 4 146
a 4 76
a 4 85
a 4 151
a 4 97
a 4 156
a 4 152
a 4 128
a 4 161
a 4 163
a 4 158
a 5 1
a 5 3
a 5 4
a 5 6
a 5 7
a 5 8
a 5 9
a 5 10
a 5 11
a 5 12
a 5 14
a 5 15
a 5 16
a 5 19
a 5 140
a 5 22
a 5 25
a 5 26
a 5 141
a 5 27
a 5 28
a 5 29
a 5 30
a 5 31
a 5 32
a 5 33
a 5 142
a 5 23
a 5 34
a 5 73
a 5 36
a 5 37
a 5 38
a 5 39
a 5 40
a 5 41
a 5 42
a 5 43
a 5 143
a 5 46
a 5 47
a 5 48
a 5 50
a 5 52
a 5 53
a 5 54
a 5 61
a 5 93
a 5 35
a 5 55
a 5 57
a 5 58
a 5 59
a 5 60
a 5 144
a 5 62
a 5 63
a 5 64
a 5 65
a 5 66
a 5 145
a 5 67
a 5 68
a 5 146
a 5 69
a 5 71
a 5 74
a 5 75
a 5 76
a 5 77
a 5 78
a 5 149
a 5 79
a 5 80
a 5 81
a 5 82
a 5 161
a 5 84
a 5 115
a 5 87
a 5 89
a 5 90
a 5 91
a 5 92
a 5 151
a 5 94
a 5 96
a 5 98
a 5 99
a 5 100
a 5 101
a 5 102
a 5 164
a 5 103
a 5 104
a 5 105
a 5 106
a 5 107
a 5 110
a 5 153
a 5 111
a 5 112
a 5 113
a 5 114
a 5 116
a 5 117
a 5 118
a 5 119
a 5 120
a 5 162
a 5 122
a 5 123
a 5 124
a 5 125
a 5 154
a 5 126
a 5 127
a 5 129
a 5 130
a 5 131
a 5 155
a 5 132
a 5 133
a 5 134
a 5 135
a 5 157
a 5 137
a 5 138
a 5 139
a 5 2
a 5 17
a 5 18
a 5 20
a 5 44
a 5 49
a 5 56
a 5 160
a 5 147
a 5 148
a 5 83
a 5 86
a 5 88
a 5 95
a 5 97
a 5 108
a 5 121
a 5 128
a 5 136
a 5 13
a 5 152
a 5 72
a 5 109
a 5 158
a 5 24
a 5 159
a 5 85
a 5 70
a 5 156
a 5 45
a 5 51
a 5 163
a 5 150
a 5 21
a 6 1
a 6 2
a 6 3
a 6 4
a 6 7
a 6 61
a 6 9
a 6 10
a 6 11
a 6 12
a 6 14
a 6 15
a 6 16
a 6 17
a 6 19
a 6 20
a 6 22
a 6 70
a 6 25
a 6 26
a 6 27
a 6 28
a 6 29
a 6 30
a 6 31
a 6 32
a 6 142
a 6 23
a 6 34
a 6 35
a 6 36
a 6 37
a 6 38
a 6 39
a 6 40
a 6 41
a 6 42
a 6 43
a 6 44
a 6 45
a 6 46
a 6 47
a 6 48
a 6 49
a 6 50
a 6 52
a 6 53
a 6 54
a 6 55
a 6 5
a 6 57
a 6 160
a 6 58
a 6 59
a 6 60
a 6 62
a 6 63
a 6 64
a 6 65
a 6 66
a 6 67
a 6 68
a 6 69
a 6 147
a 6 71
a 6 33
a 6 73
a 6 74
a 6 148
a 6 75
a 6 76
a 6 77
a 6 78
a 6 149
a 6 79
a 6 80
a 6 81
a 6 82
a 6 83
a 6 84
a 6 85
a 6 86
a 6 87
a 6 88
a 6 89
a 6 90
a 6 91
a 6 92
a 6 93
a 6 94
a 6 95
a 6 96
a 6 98
a 6 99
a 6 100
a 6 101
a 6 102
a 6 164
a 6 103
a 6 104
a 6 105
a 6 156
a 6 106
a 6 107
a 6 110
a 6 153
a 6 111
a 6 112
a 6 113
a 6 114
a 6 115
a 6 116
a 6 117
a 6 118
a 6 119
a 6 120
a 6 121
a 6 162
a 6 122
a 6 123
a 6 124
a 6 125
a 6 154
a 6 126
a 6 129
a 6 130
a 6 131
a 6 132
a 6 133
a 6 134
a 6 135
a 6 136
a 6 157
a 6 137
a 6 138
a 6 139
a 6 8
a 6 21
a 6 24
a 6 144
a 6 145
a 6 146
a 6 56
a 6 108
a 6 128
a 6 13
a 6 18
a 6 140
a 6 143
a 6 159
a 6 72
a 6 151
a 6 97
a 6 155
a 6 141
a 6 158
a 6 161
a 6 109
a 6 127
a 6 51
a 6 152
a 6 163
a 6 150
a 7 1
a 7 2
a 7 56
a 7 158
a 7 4
a 7 6
a 7 5
a 7 60
a 7 8
a 7 9
a 7 10
a 7 11
a 7 12
a 7 13
a 7 14
a 7 15
a 7 16
a 7 17
a 7 18
a 7 19
a 7 20
a 7 21
a 7 140
a 7 22
a 7 70
a 7 24
a 7 25
a 7 26
a 7 141
a 7 27
a 7 28
a 7 29
a 7 30
a 7 31
a 7 32
a 7 33
a 7 142
a 7 23
a 7 34
a 7 35
a 7 36
a 7 37
a 7 38
a 7 39
a 7 40
a 7 41
a 7 42
a 7 43
a 7 44
a 7 45
a 7 143
a 7 46
a 7 47
a 7 48
a 7 49
a 7 50
a 7 51
a 7 52
a 7 53
a 7 54
a 7 159
a 7 57
a 7 160
a 7 59
a 7 61
a 7 144
a 7 62
a 7 63
a 7 64
a 7 65
a 7 66
a 7 67
a 7 68
a 7 161
a 7 146
a 7 69
a 7 147
a 7 71
a 7 72
a 7 73
a 7 74
a 7 148
a 7 75
a 7 76
a 7 77
a 7 78
a 7 149
a 7 79
a 7 80
a 7 145
a 7 163
a 7 83
a 7 150
a 7 84
a 7 85
a 7 86
a 7 87
a 7 88
a 7 89
a 7 90
a 7 91
a 7 92
a 7 93
a 7 151
a 7 94
a 7 95
a 7 96
a 7 97
a 7 98
a 7 99
a 7 100
a 7 101
a 7 102
a 7 164
a 7 103
a 7 104
a 7 105
a 7 55
a 7 152
a 7 107
a 7 109
a 7 110
a 7 153
a 7 111
a 7 112
a 7 113
a 7 114
a 7 115
a 7 108
a 7 117
a 7 118
a 7 119
a 7 120
a 7 121
a 7 162
a 7 122
a 7 123
a 7 124
a 7 125
a 7 154
a 7 126
a 7 127
a 7 128
a 7 129
a 7 130
a 7 131
a 7 155
a 7 132
a 7 133
a 7 156
a 7 135
a 7 136
a 7 157
a 7 137
a 7 138
a 7 139
a 7 3
a 7 58
a 7 81
a 7 82
a 7 106
a 7 116
a 7 134
a 8 1
a 8 2
a 8 56
a 8 158
a 8 3
a 8 4
a 8 7
a 8 5
a 8 61
a 8 9
a 8 132
a 8 11
a 8 12
a 8 14
a 8 15
a 8 16
a 8 18
a 8 19
a 8 20
a 8 141
a 8 140
a 8 22
a 8 70
a 8 24
a 8 93
a 8 26
a 8 27
a 8 29
a 8 30
a 8 31
a 8 32
a 8 33
a 8 142
a 8 23
a 8 34
a 8 35
a 8 36
a 8 37
a 8 38
a 8 39
a 8 40
a 8 25
a 8 42
a 8 43
a 8 44
a 8 45
a 8 46
a 8 48
a 8 49
a 8 50
a 8 52
a 8 54
a 8 159
a 8 57
a 8 160
a 8 58
a 8 59
a 8 60
a 8 144
a 8 62
a 8 63
a 8 64
a 8 65
a 8 67
a 8 68
a 8 146
a 8 69
a 8 147
a 8 28
a 8 72
a 8 73
a 8 74
a 8 148
a 8 75
a 8 76
a 8 77
a 8 78
a 8 149
a 8 79
a 8 80
a 8 81
a 8 163
a 8 83
a 8 150
a 8 84
a 8 85
a 8 86
a 8 87
a 8 88
a 8 89
a 8 90
a 8 91
a 8 92
a 8 94
a 8 95
a 8 96
a 8 97
a 8 98
a 8 99
a 8 100
a 8 10
a 8 164
a 8 104
a 8 105
a 8 55
a 8 106
a 8 152
a 8 107
a 8 110
a 8 153
a 8 111
a 8 112
a 8 113
a 8 114
a 8 115
a 8 108
a 8 117
a 8 118
a 8 119
a 8 120
a 8 121
a 8 162
a 8 122
a 8 123
a 8 124
a 8 125
a 8 126
a 8 127
a 8 128
a 8 131
a 8 133
a 8 156
a 8 135
a 8 136
a 8 157
a 8 137
a 8 138
a 8 139
a 8 6
a 8 13
a 8 17
a 8 21
a 8 71
a 8 143
a 8 47
a 8 66
a 8 151
a 8 101
a 8 102
a 8 103
a 8 116
a 8 154
a 8 129
a 8 130
a 8 155
a 8 41
a 8 51
a 8 53
a 8 109
a 8 145
a 8 161
a 8 134
a 8 82
a 9 1
a 9 2
a 9 56
a 9 158
a 9 4
a 9 6
a 9 7
a 9 8
a 9 5
a 9 10
a 9 11
a 9 12
a 9 15
a 9 16
a 9 17
a 9 18
a 9 19
a 9 20
a 9 21
a 9 140
a 9 22
a 9 70
a 9 24
a 9 25
a 9 26
a 9 27
a 9 28
a 9 29
a 9 31
a 9 32
a 9 33
a 9 23
a 9 34
a 9 35
a 9 36
a 9 37
a 9 38
a 9 39
a 9 40
a 9 41
a 9 43
a 9 44
a 9 46
a 9 47
a 9 48
a 9 49
a 9 50
a 9 51
a 9 52
a 9 53
a 9 54
a 9 159
a 9 57
a 9 160
a 9 58
a 9 59
a 9 60
a 9 61
a 9 62
a 9 63
a 9 64
a 9 65
a 9 66
a 9 67
a 9 68
a 9 146
a 9 69
a 9 147
a 9 71
a 9 72
a 9 73
a 9 148
a 9 75
a 9 76
a 9 77
a 9 78
a 9 149
a 9 79
a 9 80
a 9 81
a 9 163
a 9 83
a 9 150
a 9 84
a 9 85
a 9 86
a 9 87
a 9 88
a 9 89
a 9 90
a 9 91
a 9 92
a 9 93
a 9 94
a 9 95
a 9 96
a 9 97
a 9 98
a 9 99
a 9 100
a 9 101
a 9 102
a 9 103
a 9 104
a 9 105
a 9 55
a 9 106
a 9 107
a 9 109
a 9 110
a 9 153
a 9 111
a 9 112
a 9 113
a 9 115
a 9 108
a 9 117
a 9 118
a 9 119
a 9 120
a 9 121
a 9 162
a 9 122
a 9 123
a 9 124
a 9 125
a 9 154
a 9 126
a 9 127
a 9 129
a 9 130
a 9 131
a 9 132
a 9 133
a 9 135
a 9 137
a 9 138
a 9 139
a 9 3
a 9 14
a 9 141
a 9 30
a 9 142
a 9 42
a 9 143
a 9 145
a 9 82
a 9 114
a 9 128
a 9 157
a 9 13
a 9 45
a 9 144
a 9 74
a 9 151
a 9 164
a 9 152
a 9 116
a 9 155
a 9 161
a 9 156
a 9 136
a 9 134
a 10 1
a 10 2
a 10 56
a 10 158
a 10 3
a 10 4
a 10 6
a 10 7
a 10 8
a 10 9
a 10 132
a 10 11
a 10 13
a 10 15
a 10 16
a 10 18
a 10 19
a 10 20
a 10 21
a 10 140
a 10 22
a 10 70
a 10 24
a 10 25
a 10 26
a 10 141
a 10 27
a 10 29
a 10 31
a 10 32
a 10 33
a 10 142
a 10 23
a 10 34
a 10 73
a 10 36
a 10 37
a 10 38
a 10 39
a 10 93
a 10 42
a 10 44
a 10 45
a 10 143
a 10 46
a 10 47
a 10 48
a 10 49
a 10 50
a 10 51
a 10 52
a 10 54
a 10 55
a 10 5
a 10 57
a 10 160
a 10 58
a 10 60
a 10 144
a 10 62
a 10 61
a 10 64
a 10 65
a 10 66
a 10 67
a 10 68
a 10 163
a 10 146
a 10 69
a 10 147
a 10 28
a 10 72
a 10 35
a 10 74
a 10 148
a 10 75
a 10 76
a 10 77
a 10 159
a 10 149
a 10 79
a 10 161
a 10 83
a 10 150
a 10 84
a 10 85
a 10 86
a 10 87
a 10 88
a 10 89
a 10 90
a 10 91
a 10 92
a 10 151
a 10 94
a 10 95
a 10 96
a 10 97
a 10 99
a 10 100
a 10 101
a 10 102
a 10 164
a 10 104
a 10 105
a 10 106
a 10 152
a 10 107
a 10 108
a 10 109
a 10 110
a 10 153
a 10 111
a 10 112
a 10 113
a 10 115
a 10 116
a 10 117
a 10 118
a 10 119
a 10 120
a 10 121
a 10 162
a 10 122
a 10 123
a 10 124
a 10 125
a 10 154
a 10 126
a 10 127
a 10 128
a 10 131
a 10 155
a 10 133
a 10 156
a 10 135
a 10 157
a 10 138
a 10 71
a 10 43
a 10 78
a 10 80
a 10 139
a 10 30
a 10 40
a 10 41
a 10 81
a 10 98
a 10 103
a 10 114
a 10 130
a 10 137
a 10 12
a 10 14
a 10 53
a 10 63
a 10 129
a 10 17
a 10 134
a 10 82
a 10 59
a 11 1
a 11 2
a 11 56
a 11 4
a 11 6
a 11 7
a 11 8
a 11 9
a 11 10
a 11 5
a 11 61
a 11 12
a 11 13
a 11 14
a 11 16
a 11 17
a 11 18
a 11 19
a 11 20
a 11 22
a 11 70
a 11 24
a 11 93
a 11 26
a 11 27
a 11 28
a 11 29
a 11 30
a 11 31
a 11 32
a 11 33
a 11 142
a 11 23
a 11 34
a 11 35
a 11 36
a 11 37
a 11 38
a 11 39
a 11 40
a 11 41
a 11 42
a 11 43
a 11 44
a 11 143
a 11 46
a 11 47
a 11 48
a 11 49
a 11 50
a 11 51
a 11 52
a 11 53
a 11 54
a 11 55
a 11 57
a 11 160
a 11 58
a 11 59
a 11 60
a 11 62
a 11 63
a 11 64
a 11 65
a 11 145
a 11 67
a 11 68
a 11 146
a 11 69
a 11 147
a 11 71
a 11 72
a 11 73
a 11 148
a 11 75
a 11 76
a 11 77
a 11 78
a 11 149
a 11 79
a 11 80
a 11 81
a 11 82
a 11 163
a 11 83
a 11 84
a 11 85
a 11 86
a 11 87
a 11 88
a 11 89
a 11 90
a 11 91
a 11 92
a 11 151
a 11 94
a 11 95
a 11 96
a 11 97
a 11 98
a 11 100
a 11 101
a 11 102
a 11 103
a 11 104
a 11 105
a 11 107
a 11 109
a 11 110
a 11 153
a 11 111
a 11 112
a 11 113
a 11 115
a 11 108
a 11 118
a 11 119
a 11 120
a 11 121
a 11 162
a 11 122
a 11 123
a 11 124
a 11 125
a 11 154
a 11 126
a 11 127
a 11 129
a 11 130
a 11 131
a 11 155
a 11 132
a 11 133
a 11 156
a 11 135
a 11 157
a 11 137
a 11 138
a 11 139
a 11 3
a 11 15
a 11 21
a 11 140
a 11 25
a 11 141
a 11 144
a 11 66
a 11 99
a 11 106
a 11 114
a 11 117
a 11 128
a 11 136
a 11 45
a 11 159
a 11 74
a 11 150
a 11 164
a 11 152
a 11 116
a 11 161
a 11 134
a 11 158
a 12 1
a 12 4
a 12 6
a 12 7
a 12 8
a 12 9
a 12 11
a 12 61
a 12 132
a 12 14
a 12 15
a 12 16
a 12 17
a 12 18
a 12 19
a 12 20
a 12 22
a 12 23
a 12 24
a 12 25
a 12 26
a 12 27
a 12 28
a 12 30
a 12 31
a 12 32
a 12 142
a 12 102
a 12 35
a 12 36
a 12 37
a 12 38
a 12 39
a 12 40
a 12 41
a 12 42
a 12 43
a 12 46
a 12 48
a 12 50
a 12 52
a 12 53
a 12 54
a 12 55
a 12 5
a 12 57
a 12 59
a 12 60
a 12 62
a 12 63
a 12 64
a 12 65
a 12 66
a 12 145
a 12 67
a 12 68
a 12 69
a 12 71
a 12 33
a 12 73
a 12 75
a 12 77
a 12 78
a 12 79
a 12 80
a 12 81
a 12 82
a 12 83
a 12 84
a 12 85
a 12 86
a 12 87
a 12 88
a 12 89
a 12 90
a 12 91
a 12 92
a 12 93
a 12 151
a 12 95
a 12 96
a 12 97
a 12 98
a 12 100
a 12 103
a 12 104
a 12 106
a 12 107
a 12 110
a 12 153
a 12 111
a 12 112
a 12 114
a 12 115
a 12 116
a 12 117
a 12 118
a 12 119
a 12 121
a 12 162
a 12 122
a 12 123
a 12 124
a 12 125
a 12 126
a 12 128
a 12 129
a 12 130
a 12 131
a 12 133
a 12 134
a 12 135
a 12 136
a 12 137
a 12 138
a 12 139
a 12 13
a 12 21
a 12 29
a 12 34
a 12 44
a 12 45
a 12 47
a 12 56
a 12 160
a 12 146
a 12 147
a 12 74
a 12 148
a 12 76
a 12 149
a 12 94
a 12 99
a 12 156
a 12 108
a 12 120
a 12 154
a 12 2
a 12 140
a 12 49
a 12 51
a 12 58
a 12 150
a 12 105
a 12 152
a 12 158
a 12 3
a 12 10
a 12 141
a 12 144
a 12 72
a 12 161
a 12 109
a 12 113
a 12 155
a 12 157
a 12 159
a 12 127
a 12 101
a 12 164
a 12 143
a 12 163
a 12 70
a 13 1
a 13 2
a 13 56
a 13 158
a 13 3
a 13 7
a 13 10
a 13 11
a 13 61
a 13 132
a 13 15
a 13 16
a 13 19
a 13 20
a 13 141
a 13 140
a 13 22
a 13 24
a 13 93
a 13 26
a 13 21
a 13 27
a 13 29
a 13 31
a 13 33
a 13 142
a 13 37
a 13 38
a 13 39
a 13 40
a 13 42
a 13 44
a 13 45
a 13 143
a 13 46
a 13 47
a 13 49
a 13 50
a 13 51
a 13 52
a 13 54
a 13 159
a 13 57
a 13 60
a 13 144
a 13 64
a 13 66
a 13 67
a 13 68
a 13 146
a 13 69
a 13 70
a 13 28
a 13 72
a 13 35
a 13 74
a 13 148
a 13 76
a 13 77
a 13 78
a 13 149
a 13 80
a 13 81
a 13 161
a 13 150
a 13 84
a 13 85
a 13 86
a 13 88
a 13 89
a 13 90
a 13 91
a 13 151
a 13 94
a 13 95
a 13 96
a 13 97
a 13 100
a 13 101
a 13 164
a 13 104
a 13 105
a 13 152
a 13 108
a 13 109
a 13 110
a 13 153
a 13 113
a 13 115
a 13 116
a 13 117
a 13 118
a 13 119
a 13 120
a 13 162
a 13 122
a 13 123
a 13 154
a 13 127
a 13 128
a 13 131
a 13 155
a 13 133
a 13 156
a 13 135
a 13 157
a 13 137
a 13 138
a 13 4
a 13 8
a 13 12
a 13 18
a 13 30
a 13 32
a 13 34
a 13 73
a 13 36
a 13 25
a 13 160
a 13 62
a 13 65
a 13 75
a 13 163
a 13 83
a 13 87
a 13 99
a 13 102
a 13 103
a 13 106
a 13 107
a 13 112
a 13 114
a 13 121
a 13 126
a 13 139
a 13 6
a 13 9
a 13 5
a 13 41
a 13 43
a 13 48
a 13 58
a 13 147
a 13 71
a 13 79
a 13 55
a 13 111
a 13 125
a 13 98
a 13 124
a 13 14
a 13 63
a 13 134
a 13 130
a 13 23
a 13 82
a 13 53
a 13 17
a 13 129
a 14 1
a 14 4
a 14 6
a 14 7
a 14 8
a 14 11
a 14 12
a 14 61
a 14 132
a 14 15
a 14 16
a 14 17
a 14 18
a 14 19
a 14 20
a 14 22
a 14 23
a 14 24
a 14 25
a 14 26
a 14 28
a 14 29
a 14 30
a 14 31
a 14 32
a 14 34
a 14 35
a 14 36
a 14 37
a 14 38
a 14 39
a 14 40
a 14 41
a 14 42
a 14 43
a 14 44
a 14 46
a 14 48
a 14 50
a 14 52
a 14 53
a 14 159
a 14 5
a 14 57
a 14 59
a 14 60
a 14 62
a 14 63
a 14 64
a 14 65
a 14 66
a 14 67
a 14 146
a 14 69
a 14 147
a 14 71
a 14 33
a 14 73
a 14 75
a 14 77
a 14 78
a 14 79
a 14 80
a 14 81
a 14 82
a 14 84
a 14 86
a 14 87
a 14 88
a 14 89
a 14 90
a 14 91
a 14 92
a 14 93
a 14 94
a 14 97
a 14 98
a 14 100
a 14 102
a 14 103
a 14 104
a 14 55
a 14 106
a 14 152
a 14 107
a 14 108
a 14 110
a 14 153
a 14 111
a 14 112
a 14 113
a 14 114
a 14 115
a 14 116
a 14 117
a 14 118
a 14 119
a 14 120
a 14 121
a 14 162
a 14 122
a 14 123
a 14 124
a 14 125
a 14 126
a 14 127
a 14 129
a 14 130
a 14 131
a 14 155
a 14 134
a 14 135
a 14 137
a 14 138
a 14 139
a 14 9
a 14 21
a 14 140
a 14 141
a 14 27
a 14 45
a 14 49
a 14 54
a 14 56
a 14 160
a 14 58
a 14 144
a 14 68
a 14 72
a 14 76
a 14 149
a 14 85
a 14 96
a 14 99
a 14 101
a 14 164
a 14 156
a 14 154
a 14 128
a 14 133
a 14 136
a 14 157
a 14 47
a 14 74
a 14 148
a 14 145
a 14 83
a 14 95
a 14 109
a 14 2
a 14 3
a 14 10
a 14 163
a 14 105
a 14 158
a 14 161
a 14 151
a 14 13
a 14 143
a 14 142
a 14 70
a 15 1
a 15 2
a 15 56
a 15 158
a 15 3
a 15 4
a 15 6
a 15 7
a 15 8
a 15 9
a 15 10
a 15 12
a 15 13
a 15 14
a 15 5
a 15 16
a 15 19
a 15 20
a 15 21
a 15 140
a 15 22
a 15 70
a 15 24
a 15 25
a 15 26
a 15 141
a 15 27
a 15 29
a 15 30
a 15 31
a 15 32
a 15 33
a 15 142
a 15 34
a 15 73
a 15 36
a 15 37
a 15 38
a 15 39
a 15 41
a 15 42
a 15 44
a 15 45
a 15 143
a 15 46
a 15 47
a 15 48
a 15 49
a 15 50
a 15 51
a 15 52
a 15 54
a 15 55
a 15 57
a 15 160
a 15 58
a 15 60
a 15 144
a 15 62
a 15 61
a 15 64
a 15 65
a 15 66
a 15 67
a 15 68
a 15 161
a 15 146
a 15 69
a 15 147
a 15 28
a 15 72
a 15 35
a 15 74
a 15 148
a 15 75
a 15 76
a 15 77
a 15 159
a 15 149
a 15 79
a 15 81
a 15 163
a 15 83
a 15 150
a 15 84
a 15 85
a 15 86
a 15 87
a 15 88
a 15 89
a 15 91
a 15 93
a 15 151
a 15 95
a 15 96
a 15 97
a 15 98
a 15 99
a 15 100
a 15 101
a 15 102
a 15 164
a 15 103
a 15 104
a 15 105
a 15 106
a 15 152
a 15 108
a 15 110
a 15 153
a 15 111
a 15 112
a 15 113
a 15 114
a 15 115
a 15 116
a 15 117
a 15 118
a 15 119
a 15 120
a 15 121
a 15 162
a 15 122
a 15 123
a 15 124
a 15 125
a 15 154
a 15 126
a 15 127
a 15 128
a 15 129
a 15 131
a 15 155
a 15 132
a 15 133
a 15 156
a 15 135
a 15 157
a 15 137
a 15 138
a 15 11
a 15 18
a 15 23
a 15 40
a 15 43
a 15 63
a 15 71
a 15 90
a 15 94
a 15 107
a 15 109
a 15 53
a 15 78
a 15 80
a 15 92
a 15 139
a 15 17
a 15 130
a 15 136
a 15 82
a 15 145
a 15 59
a 16 1
a 16 56
a 16 158
a 16 3
a 16 4
a 16 6
a 16 7
a 16 8
a 16 9
a 16 10
a 16 11
a 16 12
a 16 13
a 16 14
a 16 15
a 16 5
a 16 17
a 16 19
a 16 20
a 16 21
a 16 22
a 16 70
a 16 25
a 16 26
a 16 141
a 16 27
a 16 28
a 16 29
a 16 30
a 16 31
a 16 32
a 16 33
a 16 23
a 16 34
a 16 73
a 16 36
a 16 37
a 16 38
a 16 39
a 16 40
a 16 41
a 16 42
a 16 43
a 16 45
a 16 46
a 16 47
a 16 48
a 16 49
a 16 50
a 16 52
a 16 53
a 16 54
a 16 55
a 16 57
a 16 160
a 16 58
a 16 59
a 16 60
a 16 61
a 16 62
a 16 63
a 16 64
a 16 65
a 16 66
a 16 145
a 16 67
a 16 68
a 16 146
a 16 69
a 16 147
a 16 71
a 16 72
a 16 35
a 16 75
a 16 77
a 16 78
a 16 149
a 16 79
a 16 80
a 16 81
a 16 82
a 16 163
a 16 83
a 16 84
a 16 85
a 16 115
a 16 87
a 16 88
a 16 89
a 16 90
a 16 91
a 16 92
a 16 93
a 16 94
a 16 95
a 16 96
a 16 97
a 16 98
a 16 100
a 16 101
a 16 102
a 16 103
a 16 104
a 16 156
a 16 106
a 16 107
a 16 108
a 16 110
a 16 153
a 16 111
a 16 112
a 16 113
a 16 114
a 16 116
a 16 117
a 16 118
a 16 119
a 16 121
a 16 122
a 16 123
a 16 124
a 16 125
a 16 126
a 16 127
a 16 129
a 16 130
a 16 131
a 16 132
a 16 133
a 16 134
a 16 135
a 16 136
a 16 137
a 16 138
a 16 139
a 16 2
a 16 140
a 16 24
a 16 44
a 16 51
a 16 144
a 16 74
a 16 148
a 16 76
a 16 150
a 16 99
a 16 152
a 16 120
a 16 128
a 16 155
a 16 157
a 16 142
a 16 143
a 16 86
a 16 151
a 16 164
a 16 109
a 16 154
a 16 105
a 16 162
a 16 161
a 16 18
a 16 159
a 17 1
a 17 4
a 17 6
a 17 7
a 17 9
a 17 11
a 17 12
a 17 14
a 17 16
a 17 61
a 17 132
a 17 19
a 17 20
a 17 21
a 17 22
a 17 23
a 17 24
a 17 26
a 17 27
a 17 28
a 17 29
a 17 31
a 17 102
a 17 36
a 17 38
a 17 39
a 17 40
a 17 41
a 17 42
a 17 43
a 17 52
a 17 53
a 17 54
a 17 55
a 17 57
a 17 58
a 17 59
a 17 60
a 17 62
a 17 63
a 17 64
a 17 65
a 17 67
a 17 69
a 17 71
a 17 33
a 17 73
a 17 148
a 17 75
a 17 77
a 17 78
a 17 80
a 17 81
a 17 82
a 17 83
a 17 84
a 17 85
a 17 115
a 17 87
a 17 88
a 17 89
a 17 90
a 17 91
a 17 92
a 17 151
a 17 96
a 17 98
a 17 99
a 17 100
a 17 101
a 17 34
a 17 103
a 17 104
a 17 107
a 17 110
a 17 111
a 17 112
a 17 113
a 17 121
a 17 122
a 17 123
a 17 124
a 17 125
a 17 154
a 17 126
a 17 129
a 17 130
a 17 156
a 17 135
a 17 136
a 17 137
a 17 138
a 17 139
a 17 3
a 17 5
a 17 8
a 17 93
a 17 30
a 17 32
a 17 72
a 17 35
a 17 37
a 17 44
a 17 48
a 17 50
a 17 146
a 17 147
a 17 76
a 17 56
a 17 79
a 17 145
a 17 86
a 17 95
a 17 97
a 17 108
a 17 114
a 17 116
a 17 117
a 17 118
a 17 119
a 17 128
a 17 131
a 17 134
a 17 2
a 17 68
a 17 152
a 17 94
a 17 105
a 17 140
a 17 15
a 17 141
a 17 46
a 17 49
a 17 144
a 17 74
a 17 106
a 17 120
a 17 162
a 17 158
a 17 160
a 17 149
a 17 127
a 17 133
a 17 25
a 17 45
a 17 164
a 17 109
a 17 10
a 17 47
a 17 143
a 17 159
a 17 157
a 17 18
a 17 70
a 17 142
a 17 51
a 17 150
a 17 161
a 17 66
a 17 153
a 17 13
a 17 163
a 17 155
a 18 1
a 18 56
a 18 158
a 18 4
a 18 7
a 18 8
a 18 9
a 18 10
a 18 11
a 18 12
a 18 14
a 18 19
a 18 20
a 18 21
a 18 140
a 18 22
a 18 70
a 18 24
a 18 25
a 18 26
a 18 27
a 18 29
a 18 30
a 18 31
a 18 33
a 18 142
a 18 34
a 18 35
a 18 37
a 18 38
a 18 39
a 18 40
a 18 42
a 18 44
a 18 45
a 18 46
a 18 47
a 18 50
a 18 51
a 18 52
a 18 54
a 18 55
a 18 57
a 18 160
a 18 58
a 18 59
a 18 60
a 18 144
a 18 61
a 18 64
a 18 65
a 18 66
a 18 67
a 18 68
a 18 161
a 18 69
a 18 147
a 18 28
a 18 72
a 18 73
a 18 148
a 18 75
a 18 76
a 18 77
a 18 159
a 18 79
a 18 80
a 18 81
a 18 163
a 18 83
a 18 150
a 18 84
a 18 85
a 18 86
a 18 87
a 18 88
a 18 89
a 18 90
a 18 91
a 18 151
a 18 94
a 18 95
a 18 96
a 18 97
a 18 100
a 18 101
a 18 102
a 18 164
a 18 103
a 18 105
a 18 106
a 18 152
a 18 107
a 18 108
a 18 109
a 18 110
a 18 153
a 18 111
a 18 112
a 18 113
a 18 115
a 18 116
a 18 117
a 18 118
a 18 119
a 18 120
a 18 121
a 18 162
a 18 122
a 18 123
a 18 124
a 18 154
a 18 126
a 18 127
a 18 129
a 18 131
a 18 132
a 18 133
a 18 134
a 18 135
a 18 157
a 18 138
a 18 139
a 18 2
a 18 3
a 18 5
a 18 13
a 18 15
a 18 141
a 18 23
a 18 41
a 18 43
a 18 48
a 18 49
a 18 62
a 18 146
a 18 71
a 18 74
a 18 78
a 18 98
a 18 99
a 18 104
a 18 114
a 18 63
a 18 125
a 18 128
a 18 155
a 18 156
a 18 137
a 18 6
a 18 93
a 18 36
a 18 149
a 18 32
a 18 143
a 18 16
a 18 130
a 18 17
a 18 53
a 18 82
a 18 145
a 19 1
a 19 2
a 19 3
a 19 4
a 19 6
a 19 7
a 19 8
a 19 9
a 19 10
a 19 11
a 19 12
a 19 13
a 19 14
a 19 15
a 19 16
a 19 17
a 19 18
a 19 61
a 19 20
a 19 141
a 19 140
a 19 22
a 19 70
a 19 24
a 19 25
a 19 26
a 19 27
a 19 28
a 19 29
a 19 30
a 19 31
a 19 32
a 19 33
a 19 142
a 19 23
a 19 34
a 19 73
a 19 36
a 19 37
a 19 38
a 19 39
a 19 40
a 19 41
a 19 42
a 19 43
a 19 44
a 19 45
a 19 143
a 19 46
a 19 47
a 19 49
a 19 50
a 19 51
a 19 52
a 19 53
a 19 54
a 19 159
a 19 5
a 19 57
a 19 160
a 19 58
a 19 59
a 19 60
a 19 63
a 19 64
a 19 65
a 19 66
a 19 67
a 19 68
a 19 163
a 19 146
a 19 69
a 19 147
a 19 71
a 19 72
a 19 35
a 19 74
a 19 75
a 19 77
a 19 78
a 19 149
a 19 79
a 19 80
a 19 81
a 19 161
a 19 83
a 19 150
a 19 84
a 19 85
a 19 86
a 19 87
a 19 88
a 19 89
a 19 90
a 19 91
a 19 92
a 19 93
a 19 151
a 19 94
a 19 95
a 19 96
a 19 97
a 19 98
a 19 99
a 19 100
a 19 101
a 19 102
a 19 164
a 19 103
a 19 104
a 19 105
a 19 55
a 19 156
a 19 106
a 19 152
a 19 107
a 19 108
a 19 109
a 19 110
a 19 153
a 19 111
a 19 112
a 19 113
a 19 114
a 19 115
a 19 116
a 19 117
a 19 118
a 19 119
a 19 120
a 19 121
a 19 162
a 19 122
a 19 123
a 19 124
a 19 125
a 19 154
a 19 126
a 19 127
a 19 128
a 19 129
a 19 130
a 19 131
a 19 155
a 19 132
a 19 133
a 19 134
a 19 135
a 19 136
a 19 157
a 19 137
a 19 138
a 19 139
a 19 21
a 19 48
a 19 56
a 19 144
a 19 62
a 19 148
a 19 76
a 19 158
a 19 145
a 19 82
a 20 1
a 20 56
a 20 158
a 20 4
a 20 6
a 20 7
a 20 8
a 20 9
a 20 10
a 20 11
a 20 12
a 20 13
a 20 14
a 20 15
a 20 16
a 20 17
a 20 18
a 20 19
a 20 21
a 20 22
a 20 70
a 20 24
a 20 93
a 20 26
a 20 27
a 20 28
a 20 29
a 20 30
a 20 31
a 20 32
a 20 33
a 20 142
a 20 23
a 20 34
a 20 35
a 20 36
a 20 37
a 20 38
a 20 39
a 20 40
a 20 41
a 20 42
a 20 43
a 20 44
a 20 45
a 20 143
a 20 46
a 20 47
a 20 48
a 20 49
a 20 50
a 20 51
a 20 52
a 20 53
a 20 54
a 20 57
a 20 58
a 20 59
a 20 60
a 20 61
a 20 62
a 20 63
a 20 64
a 20 65
a 20 66
a 20 145
a 20 67
a 20 68
a 20 146
a 20 69
a 20 147
a 20 71
a 20 72
a 20 73
a 20 74
a 20 75
a 20 76
a 20 77
a 20 78
a 20 149
a 20 80
a 20 81
a 20 82
a 20 161
a 20 83
a 20 150
a 20 84
a 20 85
a 20 86
a 20 87
a 20 88
a 20 89
a 20 90
a 20 91
a 20 92
a 20 151
a 20 94
a 20 95
a 20 96
a 20 97
a 20 98
a 20 99
a 20 100
a 20 101
a 20 102
a 20 164
a 20 103
a 20 104
a 20 105
a 20 106
a 20 152
a 20 107
a 20 108
a 20 110
a 20 153
a 20 111
a 20 112
a 20 113
a 20 114
a 20 115
a 20 116
a 20 118
a 20 119
a 20 120
a 20 121
a 20 162
a 20 122
a 20 123
a 20 124
a 20 125
a 20 154
a 20 126
a 20 127
a 20 129
a 20 130
a 20 131
a 20 155
a 20 132
a 20 133
a 20 134
a 20 135
a 20 136
a 20 157
a 20 137
a 20 138
a 20 139
a 20 3
a 20 5
a 20 141
a 20 25
a 20 55
a 20 160
a 20 144
a 20 148
a 20 79
a 20 109
a 20 117
a 20 128
a 20 156
a 20 2
a 20 159
a 20 140
a 20 163
a 21 1
a 21 2
a 21 56
a 21 158
a 21 3
a 21 7
a 21 9
a 21 10
a 21 13
a 21 15
a 21 16
a 21 17
a 21 18
a 21 20
a 21 132
a 21 141
a 21 140
a 21 23
a 21 24
a 21 25
a 21 26
a 21 27
a 21 29
a 21 31
a 21 33
a 21 142
a 21 34
a 21 73
a 21 36
a 21 38
a 21 39
a 21 93
a 21 42
a 21 44
a 21 45
a 21 143
a 21 46
a 21 47
a 21 49
a 21 50
a 21 51
a 21 52
a 21 54
a 21 57
a 21 160
a 21 58
a 21 59
a 21 144
a 21 64
a 21 66
a 21 67
a 21 68
a 21 161
a 21 146
a 21 69
a 21 70
a 21 28
a 21 72
a 21 35
a 21 74
a 21 148
a 21 76
a 21 77
a 21 159
a 21 149
a 21 163
a 21 83
a 21 150
a 21 84
a 21 85
a 21 86
a 21 88
a 21 90
a 21 91
a 21 92
a 21 151
a 21 94
a 21 95
a 21 96
a 21 97
a 21 99
a 21 100
a 21 101
a 21 102
a 21 164
a 21 105
a 21 106
a 21 152
a 21 107
a 21 108
a 21 109
a 21 110
a 21 153
a 21 111
a 21 112
a 21 113
a 21 115
a 21 116
a 21 117
a 21 118
a 21 119
a 21 120
a 21 162
a 21 122
a 21 123
a 21 124
a 21 154
a 21 127
a 21 128
a 21 131
a 21 155
a 21 133
a 21 156
a 21 135
a 21 157
a 21 137
a 21 138
a 21 139
a 21 4
a 21 6
a 21 8
a 21 11
a 21 12
a 21 14
a 21 19
a 21 22
a 21 71
a 21 30
a 21 32
a 21 37
a 21 41
a 21 43
a 21 48
a 21 53
a 21 60
a 21 61
a 21 62
a 21 63
a 21 65
a 21 145
a 21 147
a 21 78
a 21 80
a 21 81
a 21 87
a 21 89
a 21 103
a 21 104
a 21 55
a 21 114
a 21 121
a 21 130
a 21 75
a 21 125
a 21 79
a 21 98
a 21 134
a 21 40
a 21 129
a 21 5
a 21 126
a 21 82
a 22 1
a 22 2
a 22 56
a 22 3
a 22 4
a 22 6
a 22 7
a 22 8
a 22 9
a 22 10
a 22 11
a 22 12
a 22 13
a 22 14
a 22 15
a 22 16
a 22 17
a 22 18
a 22 19
a 22 20
a 22 140
a 22 5
a 22 61
a 22 141
a 22 70
a 22 24
a 22 25
a 22 26
a 22 27
a 22 28
a 22 29
a 22 30
a 22 31
a 22 32
a 22 33
a 22 23
a 22 34
a 22 35
a 22 36
a 22 37
a 22 38
a 22 39
a 22 40
a 22 41
a 22 42
a 22 43
a 22 44
a 22 45
a 22 46
a 22 47
a 22 48
a 22 49
a 22 50
a 22 51
a 22 52
a 22 53
a 22 54
a 22 159
a 22 57
a 22 160
a 22 58
a 22 59
a 22 60
a 22 144
a 22 62
a 22 63
a 22 64
a 22 65
a 22 66
a 22 67
a 22 68
a 22 146
a 22 69
a 22 147
a 22 71
a 22 72
a 22 73
a 22 74
a 22 148
a 22 75
a 22 76
a 22 77
a 22 78
a 22 149
a 22 79
a 22 80
a 22 81
a 22 82
a 22 163
a 22 83
a 22 150
a 22 84
a 22 85
a 22 86
a 22 87
a 22 88
a 22 89
a 22 90
a 22 91
a 22 92
a 22 93
a 22 151
a 22 94
a 22 95
a 22 96
a 22 97
a 22 98
a 22 99
a 22 100
a 22 101
a 22 102
a 22 164
a 22 103
a 22 104
a 22 105
a 22 55
a 22 156
a 22 106
a 22 107
a 22 108
a 22 109
a 22 110
a 22 153
a 22 111
a 22 112
a 22 113
a 22 114
a 22 115
a 22 116
a 22 117
a 22 118
a 22 119
a 22 120
a 22 121
a 22 162
a 22 122
a 22 123
a 22 124
a 22 125
a 22 154
a 22 126
a 22 127
a 22 128
a 22 129
a 22 130
a 22 131
a 22 155
a 22 132
a 22 133
a 22 134
a 22 135
a 22 136
a 22 157
a 22 137
a 22 138
a 22 139
a 22 158
a 22 21
a 22 142
a 22 143
a 22 145
a 22 152
a 22 161
a 23 1
a 23 2
a 23 3
a 23 4
a 23 6
a 23 7
a 23 8
a 23 9
a 23 10
a 23 11
a 23 12
a 23 14
a 23 16
a 23 17
a 23 19
a 23 20
a 23 21
a 23 22
a 23 70
a 23 24
a 23 25
a 23 26
a 23 141
a 23 29
a 23 30
a 23 31
a 23 32
a 23 33
a 23 142
a 23 101
a 23 93
a 23 34
a 23 73
a 23 36
a 23 37
a 23 38
a 23 39
a 23 40
a 23 41
a 23 42
a 23 43
a 23 143
a 23 46
a 23 47
a 23 48
a 23 52
a 23 53
a 23 54
a 23 55
a 23 5
a 23 57
a 23 58
a 23 59
a 23 60
a 23 61
a 23 62
a 23 63
a 23 64
a 23 65
a 23 66
a 23 67
a 23 69
a 23 71
a 23 35
a 23 75
a 23 76
a 23 77
a 23 78
a 23 79
a 23 80
a 23 81
a 23 82
a 23 83
a 23 115
a 23 89
a 23 90
a 23 91
a 23 92
a 23 94
a 23 95
a 23 96
a 23 98
a 23 99
a 23 100
a 23 102
a 23 164
a 23 103
a 23 104
a 23 156
a 23 106
a 23 107
a 23 109
a 23 110
a 23 111
a 23 112
a 23 114
a 23 116
a 23 117
a 23 118
a 23 119
a 23 120
a 23 121
a 23 122
a 23 123
a 23 124
a 23 125
a 23 154
a 23 126
a 23 127
a 23 129
a 23 130
a 23 132
a 23 133
a 23 134
a 23 135
a 23 136
a 23 137
a 23 138
a 23 139
a 23 15
a 23 18
a 23 140
a 23 44
a 23 160
a 23 144
a 23 68
a 23 146
a 23 147
a 23 28
a 23 56
a 23 145
a 23 85
a 23 87
a 23 88
a 23 105
a 23 108
a 23 128
a 23 157
a 23 27
a 23 49
a 23 74
a 23 148
a 23 97
a 23 152
a 23 131
a 23 50
a 23 161
a 23 162
a 23 158
a 23 86
a 23 113
a 23 151
a 23 45
a 23 155
a 23 159
a 23 84
a 23 72
a 23 163
a 23 13
a 23 149
a 23 51
a 23 150
a 23 153
a 24 1
a 24 2
a 24 56
a 24 158
a 24 3
a 24 4
a 24 7
a 24 8
a 24 9
a 24 10
a 24 11
a 24 12
a 24 13
a 24 14
a 24 15
a 24 17
a 24 18
a 24 19
a 24 20
a 24 21
a 24 140
a 24 22
a 24 70
a 24 61
a 24 25
a 24 26
a 24 27
a 24 29
a 24 30
a 24 31
a 24 32
a 24 33
a 24 142
a 24 23
a 24 34
a 24 35
a 24 36
a 24 37
a 24 38
a 24 39
a 24 40
a 24 41
a 24 42
a 24 43
a 24 44
a 24 45
a 24 143
a 24 46
a 24 47
a 24 48
a 24 49
a 24 50
a 24 51
a 24 52
a 24 54
a 24 55
a 24 57
a 24 160
a 24 58
a 24 59
a 24 60
a 24 144
a 24 62
a 24 64
a 24 65
a 24 66
a 24 67
a 24 68
a 24 163
a 24 146
a 24 69
a 24 147
a 24 28
a 24 72
a 24 73
a 24 74
a 24 148
a 24 75
a 24 76
a 24 77
a 24 159
a 24 149
a 24 79
a 24 80
a 24 81
a 24 161
a 24 83
a 24 150
a 24 84
a 24 85
a 24 86
a 24 87
a 24 88
a 24 89
a 24 90
a 24 91
a 24 93
a 24 151
a 24 94
a 24 95
a 24 96
a 24 97
a 24 99
a 24 100
a 24 101
a 24 164
a 24 103
a 24 104
a 24 105
a 24 106
a 24 152
a 24 107
a 24 153
a 24 111
a 24 112
a 24 113
a 24 115
a 24 108
a 24 117
a 24 118
a 24 119
a 24 120
a 24 121
a 24 162
a 24 122
a 24 123
a 24 154
a 24 126
a 24 127
a 24 128
a 24 131
a 24 155
a 24 132
a 24 156
a 24 135
a 24 157
a 24 137
a 24 138
a 24 139
a 24 6
a 24 16
a 24 141
a 24 63
a 24 109
a 24 110
a 24 116
a 24 124
a 24 133
a 24 53
a 24 78
a 24 102
a 24 125
a 24 130
a 24 134
a 24 5
a 24 114
a 24 129
a 24 71
a 24 82
a 24 98
a 25 1
a 25 2
a 25 158
a 25 3
a 25 4
a 25 6
a 25 7
a 25 8
a 25 9
a 25 10
a 25 12
a 25 14
a 25 15
a 25 16
a 25 18
a 25 19
a 25 21
a 25 140
a 25 22
a 25 70
a 25 24
a 25 132
a 25 141
a 25 93
a 25 26
a 25 27
a 25 29
a 25 30
a 25 31
a 25 32
a 25 33
a 25 142
a 25 23
a 25 34
a 25 36
a 25 37
a 25 38
a 25 39
a 25 41
a 25 42
a 25 46
a 25 47
a 25 48
a 25 49
a 25 50
a 25 51
a 25 52
a 25 78
a 25 5
a 25 57
a 25 58
a 25 59
a 25 60
a 25 61
a 25 62
a 25 63
a 25 64
a 25 65
a 25 66
a 25 67
a 25 68
a 25 161
a 25 146
a 25 69
a 25 147
a 25 28
a 25 72
a 25 35
a 25 74
a 25 148
a 25 75
a 25 77
a 25 159
a 25 79
a 25 80
a 25 81
a 25 82
a 25 163
a 25 83
a 25 84
a 25 85
a 25 86
a 25 87
a 25 88
a 25 89
a 25 90
a 25 91
a 25 92
a 25 151
a 25 94
a 25 95
a 25 96
a 25 97
a 25 98
a 25 99
a 25 100
a 25 102
a 25 164
a 25 103
a 25 104
a 25 105
a 25 55
a 25 156
a 25 106
a 25 152
a 25 107
a 25 109
a 25 110
a 25 153
a 25 111
a 25 112
a 25 113
a 25 114
a 25 115
a 25 116
a 25 117
a 25 118
a 25 119
a 25 120
a 25 121
a 25 162
a 25 122
a 25 123
a 25 124
a 25 125
a 25 126
a 25 127
a 25 128
a 25 129
a 25 130
a 25 131
a 25 155
a 25 133
a 25 134
a 25 135
a 25 157
a 25 137
a 25 138
a 25 139
a 25 11
a 25 13
a 25 20
a 25 71
a 25 43
a 25 44
a 25 45
a 25 53
a 25 54
a 25 144
a 25 145
a 25 73
a 25 76
a 25 56
a 25 101
a 25 108
a 25 154
a 25 136
a 25 40
a 25 143
a 25 160
a 25 149
a 25 17
a 26 1
a 26 2
a 26 56
a 26 3
a 26 6
a 26 7
a 26 8
a 26 9
a 26 10
a 26 11
a 26 12
a 26 13
a 26 14
a 26 15
a 26 16
a 26 17
a 26 18
a 26 19
a 26 20
a 26 21
a 26 140
a 26 22
a 26 70
a 26 24
a 26 25
a 26 5
a 26 132
a 26 141
a 26 27
a 26 28
a 26 29
a 26 30
a 26 31
a 26 33
a 26 23
a 26 34
a 26 73
a 26 36
a 26 37
a 26 38
a 26 39
a 26 40
a 26 41
a 26 42
a 26 43
a 26 44
a 26 45
a 26 46
a 26 47
a 26 49
a 26 50
a 26 51
a 26 52
a 26 53
a 26 54
a 26 159
a 26 57
a 26 160
a 26 58
a 26 59
a 26 60
a 26 61
a 26 62
a 26 63
a 26 64
a 26 65
a 26 66
a 26 67
a 26 68
a 26 163
a 26 146
a 26 69
a 26 147
a 26 71
a 26 72
a 26 35
a 26 74
a 26 75
a 26 76
a 26 77
a 26 78
a 26 149
a 26 79
a 26 80
a 26 81
a 26 82
a 26 161
a 26 83
a 26 150
a 26 84
a 26 85
a 26 86
a 26 87
a 26 88
a 26 89
a 26 90
a 26 91
a 26 92
a 26 93
a 26 94
a 26 95
a 26 96
a 26 97
a 26 98
a 26 99
a 26 100
a 26 102
a 26 103
a 26 105
a 26 55
a 26 106
a 26 107
a 26 108
a 26 110
a 26 111
a 26 112
a 26 113
a 26 115
a 26 116
a 26 117
a 26 118
a 26 119
a 26 120
a 26 121
a 26 162
a 26 122
a 26 123
a 26 124
a 26 125
a 26 154
a 26 126
a 26 127
a 26 129
a 26 130
a 26 131
a 26 133
a 26 156
a 26 135
a 26 157
a 26 137
a 26 138
a 26 139
a 26 4
a 26 32
a 26 144
a 26 145
a 26 153
a 26 114
a 26 128
a 26 134
a 26 136
a 26 158
a 26 142
a 26 143
a 26 48
a 26 148
a 26 151
a 26 104
a 26 152
a 26 155
a 26 101
a 26 164
a 26 109
a 27 1
a 27 2
a 27 56
a 27 158
a 27 3
a 27 4
a 27 6
a 27 7
a 27 8
a 27 9
a 27 10
a 27 11
a 27 12
a 27 13
a 27 15
a 27 16
a 27 17
a 27 18
a 27 19
a 27 20
a 27 21
a 27 140
a 27 22
a 27 70
a 27 24
a 27 25
a 27 26
a 27 141
a 27 5
a 27 29
a 27 31
a 27 32
a 27 33
a 27 142
a 27 34
a 27 73
a 27 36
a 27 37
a 27 38
a 27 39
a 27 41
a 27 42
a 27 43
a 27 44
a 27 45
a 27 143
a 27 46
a 27 47
a 27 48
a 27 49
a 27 50
a 27 51
a 27 52
a 27 54
a 27 159
a 27 57
a 27 160
a 27 58
a 27 59
a 27 60
a 27 144
a 27 62
a 27 61
a 27 64
a 27 65
a 27 66
a 27 67
a 27 68
a 27 161
a 27 146
a 27 69
a 27 147
a 27 28
a 27 72
a 27 35
a 27 74
a 27 148
a 27 75
a 27 76
a 27 77
a 27 78
a 27 149
a 27 79
a 27 80
a 27 81
a 27 163
a 27 83
a 27 150
a 27 84
a 27 85
a 27 86
a 27 87
a 27 88
a 27 89
a 27 90
a 27 91
a 27 92
a 27 93
a 27 151
a 27 95
a 27 96
a 27 97
a 27 98
a 27 99
a 27 100
a 27 101
a 27 102
a 27 164
a 27 103
a 27 104
a 27 105
a 27 55
a 27 106
a 27 152
a 27 107
a 27 109
a 27 110
a 27 153
a 27 111
a 27 112
a 27 113
a 27 114
a 27 115
a 27 108
a 27 117
a 27 118
a 27 119
a 27 120
a 27 121
a 27 162
a 27 122
a 27 123
a 27 124
a 27 125
a 27 154
a 27 127
a 27 128
a 27 129
a 27 131
a 27 155
a 27 133
a 27 156
a 27 135
a 27 157
a 27 137
a 27 138
a 27 139
a 27 14
a 27 94
a 27 116
a 27 132
a 27 23
a 27 71
a 27 63
a 27 126
a 27 130
a 27 134
a 27 30
a 27 53
a 27 40
a 27 82
a 27 145
a 28 1
a 28 2
a 28 56
a 28 158
a 28 3
a 28 4
a 28 6
a 28 7
a 28 8
a 28 9
a 28 10
a 28 11
a 28 12
a 28 13
a 28 14
a 28 15
a 28 16
a 28 17
a 28 18
a 28 19
a 28 20
a 28 21
a 28 140
a 28 22
a 28 70
a 28 24
a 28 25
a 28 26
a 28 141
a 28 27
a 28 5
a 28 93
a 28 29
a 28 32
a 28 33
a 28 142
a 28 34
a 28 73
a 28 36
a 28 37
a 28 38
a 28 39
a 28 42
a 28 44
a 28 45
a 28 143
a 28 46
a 28 47
a 28 48
a 28 49
a 28 50
a 28 51
a 28 52
a 28 54
a 28 159
a 28 57
a 28 160
a 28 58
a 28 60
a 28 144
a 28 61
a 28 64
a 28 65
a 28 66
a 28 67
a 28 68
a 28 161
a 28 146
a 28 69
a 28 147
a 28 72
a 28 35
a 28 74
a 28 148
a 28 75
a 28 76
a 28 77
a 28 78
a 28 149
a 28 79
a 28 163
a 28 83
a 28 150
a 28 84
a 28 85
a 28 86
a 28 87
a 28 88
a 28 89
a 28 90
a 28 91
a 28 151
a 28 94
a 28 95
a 28 96
a 28 97
a 28 99
a 28 100
a 28 101
a 28 102
a 28 164
a 28 103
a 28 104
a 28 105
a 28 55
a 28 106
a 28 152
a 28 107
a 28 108
a 28 109
a 28 110
a 28 153
a 28 111
a 28 112
a 28 113
a 28 115
a 28 116
a 28 117
a 28 118
a 28 119
a 28 120
a 28 162
a 28 122
a 28 123
a 28 125
a 28 154
a 28 126
a 28 127
a 28 128
a 28 129
a 28 131
a 28 155
a 28 132
a 28 133
a 28 156
a 28 135
a 28 157
a 28 137
a 28 138
a 28 30
a 28 31
a 28 23
a 28 40
a 28 41
a 28 62
a 28 80
a 28 81
a 28 124
a 28 139
a 28 43
a 28 63
a 28 71
a 28 98
a 28 121
a 28 114
a 28 136
a 28 134
a 29 1
a 29 2
a 29 56
a 29 158
a 29 3
a 29 4
a 29 6
a 29 7
a 29 8
a 29 9
a 29 10
a 29 11
a 29 13
a 29 14
a 29 15
a 29 16
a 29 17
a 29 18
a 29 19
a 29 20
a 29 21
a 29 140
a 29 22
a 29 70
a 29 24
a 29 25
a 29 26
a 29 141
a 29 27
a 29 28
a 29 5
a 29 30
a 29 31
a 29 32
a 29 33
a 29 142
a 29 23
a 29 34
a 29 73
a 29 36
a 29 37
a 29 38
a 29 39
a 29 40
a 29 41
a 29 42
a 29 43
a 29 44
a 29 45
a 29 46
a 29 47
a 29 48
a 29 49
a 29 50
a 29 51
a 29 52
a 29 53
a 29 54
a 29 159
a 29 57
a 29 160
a 29 58
a 29 59
a 29 60
a 29 61
a 29 144
a 29 62
a 29 63
a 29 64
a 29 65
a 29 66
a 29 67
a 29 68
a 29 146
a 29 147
a 29 71
a 29 72
a 29 35
a 29 74
a 29 148
a 29 75
a 29 76
a 29 77
a 29 78
a 29 149
a 29 79
a 29 80
a 29 81
a 29 82
a 29 163
a 29 83
a 29 150
a 29 84
a 29 85
a 29 86
a 29 87
a 29 88
a 29 89
a 29 90
a 29 91
a 29 92
a 29 93
a 29 151
a 29 94
a 29 95
a 29 96
a 29 97
a 29 98
a 29 99
a 29 100
a 29 101
a 29 102
a 29 164
a 29 103
a 29 104
a 29 105
a 29 55
a 29 156
a 29 106
a 29 152
a 29 107
a 29 108
a 29 110
a 29 111
a 29 112
a 29 113
a 29 114
a 29 115
a 29 116
a 29 117
a 29 118
a 29 119
a 29 120
a 29 121
a 29 162
a 29 122
a 29 123
a 29 124
a 29 154
a 29 126
a 29 127
a 29 128
a 29 129
a 29 130
a 29 131
a 29 155
a 29 132
a 29 133
a 29 134
a 29 135
a 29 157
a 29 137
a 29 138
a 29 139
a 29 12
a 29 69
a 29 161
a 29 153
a 29 125
a 29 143
a 29 109
a 29 145
a 29 136
a 30 1
a 30 2
a 30 3
a 30 4
a 30 6
a 30 7
a 30 8
a 30 11
a 30 12
a 30 14
a 30 15
a 30 16
a 30 18
a 30 19
a 30 20
a 30 22
a 30 70
a 30 24
a 30 25
a 30 26
a 30 29
a 30 61
a 30 132
a 30 93
a 30 31
a 30 32
a 30 23
a 30 34
a 30 35
a 30 36
a 30 37
a 30 38
a 30 39
a 30 40
a 30 41
a 30 42
a 30 43
a 30 46
a 30 48
a 30 50
a 30 52
a 30 53
a 30 54
a 30 159
a 30 5
a 30 57
a 30 58
a 30 59
a 30 60
a 30 62
a 30 63
a 30 64
a 30 65
a 30 66
a 30 145
a 30 68
a 30 146
a 30 69
a 30 147
a 30 71
a 30 33
a 30 73
a 30 75
a 30 76
a 30 78
a 30 149
a 30 79
a 30 80
a 30 81
a 30 82
a 30 161
a 30 83
a 30 150
a 30 84
a 30 85
a 30 115
a 30 87
a 30 88
a 30 89
a 30 90
a 30 91
a 30 92
a 30 151
a 30 94
a 30 95
a 30 96
a 30 97
a 30 98
a 30 99
a 30 100
a 30 101
a 30 102
a 30 164
a 30 103
a 30 104
a 30 55
a 30 106
a 30 107
a 30 109
a 30 110
a 30 153
a 30 111
a 30 112
a 30 113
a 30 114
a 30 116
a 30 117
a 30 118
a 30 119
a 30 120
a 30 121
a 30 162
a 30 122
a 30 123
a 30 124
a 30 125
a 30 126
a 30 127
a 30 129
a 30 130
a 30 133
a 30 134
a 30 135
a 30 136
a 30 157
a 30 137
a 30 138
a 30 139
a 30 9
a 30 13
a 30 17
a 30 21
a 30 141
a 30 44
a 30 51
a 30 56
a 30 160
a 30 144
a 30 67
a 30 28
a 30 148
a 30 77
a 30 163
a 30 105
a 30 156
a 30 152
a 30 108
a 30 154
a 30 128
a 30 155
a 30 10
a 30 140
a 30 142
a 30 47
a 30 49
a 30 72
a 30 74
a 30 86
a 30 131
a 30 27
a 30 45
a 30 158
a 30 143
a 31 1
a 31 2
a 31 56
a 31 3
a 31 4
a 31 6
a 31 7
a 31 8
a 31 9
a 31 10
a 31 11
a 31 12
a 31 13
a 31 14
a 31 15
a 31 16
a 31 17
a 31 18
a 31 19
a 31 20
a 31 21
a 31 140
a 31 22
a 31 24
a 31 25
a 31 26
a 31 141
a 31 27
a 31 29
a 31 30
a 31 5
a 31 23
a 31 33
a 31 34
a 31 73
a 31 36
a 31 37
a 31 38
a 31 39
a 31 40
a 31 41
a 31 42
a 31 43
a 31 44
a 31 45
a 31 46
a 31 47
a 31 48
a 31 49
a 31 50
a 31 52
a 31 53
a 31 54
a 31 55
a 31 57
a 31 58
a 31 59
a 31 60
a 31 144
a 31 62
a 31 61
a 31 64
a 31 65
a 31 66
a 31 67
a 31 68
a 31 146
a 31 69
a 31 147
a 31 71
a 31 72
a 31 35
a 31 74
a 31 148
a 31 75
a 31 76
a 31 77
a 31 78
a 31 149
a 31 79
a 31 80
a 31 81
a 31 82
a 31 163
a 31 83
a 31 150
a 31 84
a 31 85
a 31 86
a 31 87
a 31 88
a 31 89
a 31 90
a 31 91
a 31 92
a 31 93
a 31 94
a 31 95
a 31 96
a 31 97
a 31 98
a 31 99
a 31 100
a 31 101
a 31 102
a 31 164
a 31 103
a 31 104
a 31 105
a 31 156
a 31 106
a 31 152
a 31 107
a 31 108
a 31 109
a 31 110
a 31 153
a 31 111
a 31 112
a 31 113
a 31 114
a 31 115
a 31 116
a 31 117
a 31 118
a 31 119
a 31 120
a 31 121
a 31 162
a 31 122
a 31 123
a 31 124
a 31 125
a 31 154
a 31 126
a 31 127
a 31 129
a 31 130
a 31 131
a 31 132
a 31 133
a 31 134
a 31 135
a 31 157
a 31 137
a 31 138
a 31 139
a 31 70
a 31 32
a 31 142
a 31 143
a 31 51
a 31 160
a 31 63
a 31 145
a 31 28
a 31 128
a 31 151
a 31 155
a 31 158
a 31 161
a 31 136
a 31 159
a 32 1
a 32 56
a 32 3
a 32 4
a 32 6
a 32 7
a 32 8
a 32 9
a 32 10
a 32 11
a 32 12
a 32 14
a 32 15
a 32 16
a 32 19
a 32 20
a 32 140
a 32 22
a 32 70
a 32 24
a 32 25
a 32 141
a 32 27
a 32 28
a 32 29
a 32 30
a 32 5
a 32 93
a 32 23
a 32 34
a 32 35
a 32 36
a 32 37
a 32 38
a 32 39
a 32 40
a 32 41
a 32 42
a 32 43
a 32 45
a 32 143
a 32 46
a 32 47
a 32 48
a 32 49
a 32 50
a 32 51
a 32 52
a 32 55
a 32 57
a 32 160
a 32 58
a 32 59
a 32 144
a 32 63
a 32 64
a 32 65
a 32 66
a 32 67
a 32 68
a 32 69
a 32 147
a 32 71
a 32 33
a 32 73
a 32 74
a 32 148
a 32 75
a 32 76
a 32 77
a 32 78
a 32 149
a 32 79
a 32 80
a 32 145
a 32 161
a 32 83
a 32 150
a 32 85
a 32 86
a 32 87
a 32 88
a 32 89
a 32 90
a 32 91
a 32 92
a 32 151
a 32 94
a 32 95
a 32 96
a 32 97
a 32 98
a 32 99
a 32 100
a 32 101
a 32 102
a 32 103
a 32 104
a 32 105
a 32 152
a 32 107
a 32 110
a 32 153
a 32 111
a 32 112
a 32 113
a 32 114
a 32 116
a 32 117
a 32 118
a 32 119
a 32 162
a 32 122
a 32 123
a 32 124
a 32 125
a 32 154
a 32 128
a 32 129
a 32 130
a 32 131
a 32 155
a 32 132
a 32 133
a 32 135
a 32 137
a 32 138
a 32 139
a 32 158
a 32 13
a 32 17
a 32 21
a 32 26
a 32 31
a 32 61
a 32 142
a 32 44
a 32 53
a 32 54
a 32 62
a 32 146
a 32 81
a 32 82
a 32 84
a 32 115
a 32 106
a 32 108
a 32 121
a 32 126
a 32 127
a 32 156
a 32 2
a 32 60
a 32 109
a 32 120
a 32 134
a 32 157
a 32 163
a 32 164
a 32 18
a 32 72
a 32 159
a 32 136
a 33 1
a 33 2
a 33 56
a 33 158
a 33 3
a 33 4
a 33 6
a 33 7
a 33 8
a 33 9
a 33 10
a 33 11
a 33 12
a 33 13
a 33 14
a 33 15
a 33 16
a 33 17
a 33 18
a 33 19
a 33 20
a 33 21
a 33 140
a 33 22
a 33 70
a 33 24
a 33 25
a 33 26
a 33 141
a 33 27
a 33 28
a 33 29
a 33 30
a 33 31
a 33 32
a 33 5
a 33 142
a 33 23
a 33 34
a 33 73
a 33 36
a 33 37
a 33 38
a 33 39
a 33 40
a 33 41
a 33 43
a 33 44
a 33 143
a 33 46
a 33 48
a 33 49
a 33 50
a 33 51
a 33 52
a 33 53
a 33 54
a 33 159
a 33 57
a 33 160
a 33 59
a 33 60
a 33 61
a 33 144
a 33 62
a 33 63
a 33 64
a 33 65
a 33 66
a 33 67
a 33 68
a 33 146
a 33 69
a 33 147
a 33 71
a 33 72
a 33 35
a 33 74
a 33 148
a 33 75
a 33 76
a 33 77
a 33 78
a 33 149
a 33 79
a 33 80
a 33 81
a 33 82
a 33 163
a 33 83
a 33 150
a 33 84
a 33 85
a 33 86
a 33 87
a 33 88
a 33 89
a 33 90
a 33 91
a 33 92
a 33 93
a 33 151
a 33 94
a 33 95
a 33 96
a 33 97
a 33 99
a 33 100
a 33 101
a 33 102
a 33 164
a 33 103
a 33 105
a 33 55
a 33 156
a 33 106
a 33 107
a 33 108
a 33 109
a 33 110
a 33 153
a 33 111
a 33 112
a 33 113
a 33 114
a 33 115
a 33 116
a 33 117
a 33 118
a 33 119
a 33 120
a 33 121
a 33 162
a 33 122
a 33 123
a 33 124
a 33 125
a 33 154
a 33 126
a 33 127
a 33 128
a 33 129
a 33 130
a 33 131
a 33 155
a 33 132
a 33 133
a 33 134
a 33 135
a 33 136
a 33 157
a 33 137
a 33 138
a 33 139
a 33 42
a 33 45
a 33 47
a 33 58
a 33 145
a 33 104
a 33 152
a 33 161
a 33 98
a 34 1
a 34 2
a 34 56
a 34 158
a 34 3
a 34 4
a 34 6
a 34 7
a 34 8
a 34 9
a 34 10
a 34 11
a 34 14
a 34 15
a 34 16
a 34 17
a 34 18
a 34 19
a 34 20
a 34 21
a 34 140
a 34 22
a 34 70
a 34 24
a 34 25
a 34 26
a 34 27
a 34 28
a 34 29
a 34 30
a 34 31
a 34 32
a 34 33
a 34 142
a 34 23
a 34 5
a 34 61
a 34 102
a 34 35
a 34 36
a 34 37
a 34 38
a 34 39
a 34 40
a 34 41
a 34 42
a 34 43
a 34 44
a 34 45
a 34 143
a 34 46
a 34 47
a 34 48
a 34 49
a 34 50
a 34 51
a 34 52
a 34 54
a 34 159
a 34 57
a 34 160
a 34 58
a 34 60
a 34 144
a 34 62
a 34 63
a 34 64
a 34 65
a 34 66
a 34 67
a 34 68
a 34 146
a 34 69
a 34 147
a 34 71
a 34 72
a 34 73
a 34 74
a 34 148
a 34 75
a 34 76
a 34 77
a 34 78
a 34 149
a 34 79
a 34 80
a 34 81
a 34 82
a 34 163
a 34 83
a 34 150
a 34 84
a 34 85
a 34 86
a 34 87
a 34 88
a 34 89
a 34 90
a 34 91
a 34 92
a 34 93
a 34 151
a 34 95
a 34 96
a 34 97
a 34 99
a 34 100
a 34 101
a 34 164
a 34 103
a 34 104
a 34 105
a 34 55
a 34 106
a 34 152
a 34 107
a 34 109
a 34 110
a 34 153
a 34 111
a 34 112
a 34 113
a 34 115
a 34 108
a 34 118
a 34 119
a 34 120
a 34 121
a 34 162
a 34 122
a 34 123
a 34 124
a 34 125
a 34 154
a 34 126
a 34 127
a 34 128
a 34 155
a 34 132
a 34 133
a 34 135
a 34 136
a 34 137
a 34 138
a 34 139
a 34 12
a 34 13
a 34 141
a 34 145
a 34 98
a 34 114
a 34 116
a 34 117
a 34 131
a 34 156
a 34 157
a 34 161
a 34 94
a 34 134
a 34 53
a 34 130
a 34 129
a 34 59
a 35 1
a 35 2
a 35 56
a 35 158
a 35 3
a 35 4
a 35 6
a 35 7
a 35 8
a 35 9
a 35 10
a 35 11
a 35 12
a 35 13
a 35 14
a 35 15
a 35 16
a 35 18
a 35 19
a 35 20
a 35 21
a 35 140
a 35 22
a 35 70
a 35 24
a 35 25
a 35 26
a 35 141
a 35 27
a 35 28
a 35 29
a 35 30
a 35 31
a 35 32
a 35 33
a 35 142
a 35 23
a 35 34
a 35 73
a 35 36
a 35 37
a 35 38
a 35 39
a 35 40
a 35 41
a 35 42
a 35 43
a 35 44
a 35 45
a 35 143
a 35 46
a 35 47
a 35 48
a 35 49
a 35 50
a 35 51
a 35 52
a 35 54
a 35 159
a 35 5
a 35 57
a 35 160
a 35 58
a 35 59
a 35 60
a 35 61
a 35 144
a 35 62
a 35 63
a 35 64
a 35 65
a 35 66
a 35 67
a 35 68
a 35 161
a 35 146
a 35 69
a 35 147
a 35 72
a 35 74
a 35 148
a 35 75
a 35 76
a 35 77
a 35 78
a 35 149
a 35 80
a 35 81
a 35 163
a 35 83
a 35 150
a 35 84
a 35 85
a 35 86
a 35 87
a 35 88
a 35 89
a 35 90
a 35 91
a 35 93
a 35 151
a 35 94
a 35 95
a 35 96
a 35 97
a 35 98
a 35 99
a 35 100
a 35 101
a 35 164
a 35 103
a 35 104
a 35 105
a 35 55
a 35 156
a 35 106
a 35 152
a 35 108
a 35 110
a 35 153
a 35 111
a 35 112
a 35 113
a 35 114
a 35 115
a 35 116
a 35 117
a 35 118
a 35 119
a 35 120
a 35 121
a 35 162
a 35 122
a 35 123
a 35 124
a 35 125
a 35 154
a 35 126
a 35 127
a 35 128
a 35 129
a 35 131
a 35 155
a 35 132
a 35 133
a 35 134
a 35 135
a 35 136
a 35 157
a 35 137
a 35 138
a 35 139
a 35 17
a 35 71
a 35 53
a 35 145
a 35 79
a 35 92
a 35 102
a 35 107
a 35 109
a 35 130
a 35 82
a 36 1
a 36 2
a 36 56
a 36 158
a 36 4
a 36 6
a 36 7
a 36 8
a 36 9
a 36 10
a 36 11
a 36 12
a 36 14
a 36 15
a 36 16
a 36 17
a 36 19
a 36 20
a 36 21
a 36 140
a 36 22
a 36 70
a 36 24
a 36 25
a 36 26
a 36 141
a 36 27
a 36 28
a 36 29
a 36 30
a 36 31
a 36 32
a 36 33
a 36 142
a 36 23
a 36 34
a 36 73
a 36 5
a 36 37
a 36 38
a 36 39
a 36 40
a 36 41
a 36 42
a 36 43
a 36 44
a 36 46
a 36 47
a 36 48
a 36 49
a 36 50
a 36 51
a 36 52
a 36 53
a 36 54
a 36 159
a 36 57
a 36 58
a 36 59
a 36 60
a 36 61
a 36 62
a 36 63
a 36 64
a 36 65
a 36 145
a 36 68
a 36 69
a 36 147
a 36 71
a 36 72
a 36 35
a 36 148
a 36 75
a 36 76
a 36 77
a 36 78
a 36 149
a 36 79
a 36 80
a 36 81
a 36 82
a 36 161
a 36 83
a 36 150
a 36 84
a 36 85
a 36 86
a 36 87
a 36 88
a 36 89
a 36 90
a 36 92
a 36 93
a 36 151
a 36 94
a 36 95
a 36 96
a 36 97
a 36 98
a 36 100
a 36 101
a 36 102
a 36 164
a 36 103
a 36 104
a 36 105
a 36 55
a 36 106
a 36 152
a 36 107
a 36 108
a 36 110
a 36 153
a 36 111
a 36 112
a 36 113
a 36 114
a 36 115
a 36 116
a 36 117
a 36 118
a 36 119
a 36 120
a 36 121
a 36 122
a 36 123
a 36 124
a 36 125
a 36 154
a 36 126
a 36 127
a 36 128
a 36 129
a 36 130
a 36 131
a 36 132
a 36 133
a 36 134
a 36 135
a 36 136
a 36 157
a 36 137
a 36 138
a 36 139
a 36 3
a 36 13
a 36 45
a 36 160
a 36 144
a 36 66
a 36 67
a 36 146
a 36 74
a 36 91
a 36 109
a 36 162
a 36 18
a 36 143
a 36 155
a 36 99
a 36 163
a 36 156
a 37 1
a 37 2
a 37 56
a 37 158
a 37 3
a 37 4
a 37 6
a 37 7
a 37 8
a 37 9
a 37 10
a 37 11
a 37 12
a 37 13
a 37 14
a 37 15
a 37 16
a 37 18
a 37 19
a 37 20
a 37 140
a 37 22
a 37 70
a 37 24
a 37 25
a 37 26
a 37 141
a 37 27
a 37 28
a 37 29
a 37 30
a 37 31
a 37 32
a 37 33
a 37 23
a 37 34
a 37 73
a 37 36
a 37 5
a 37 61
a 37 35
a 37 38
a 37 39
a 37 40
a 37 41
a 37 42
a 37 43
a 37 44
a 37 45
a 37 143
a 37 46
a 37 47
a 37 48
a 37 49
a 37 50
a 37 51
a 37 52
a 37 53
a 37 54
a 37 159
a 37 57
a 37 160
a 37 58
a 37 59
a 37 60
a 37 144
a 37 62
a 37 63
a 37 64
a 37 65
a 37 66
a 37 67
a 37 68
a 37 161
a 37 69
a 37 147
a 37 71
a 37 72
a 37 148
a 37 75
a 37 77
a 37 78
a 37 149
a 37 79
a 37 80
a 37 81
a 37 82
a 37 163
a 37 83
a 37 150
a 37 84
a 37 85
a 37 86
a 37 87
a 37 88
a 37 89
a 37 90
a 37 91
a 37 92
a 37 93
a 37 151
a 37 94
a 37 95
a 37 96
a 37 97
a 37 98
a 37 99
a 37 100
a 37 101
a 37 102
a 37 164
a 37 103
a 37 104
a 37 105
a 37 55
a 37 152
a 37 107
a 37 108
a 37 109
a 37 110
a 37 153
a 37 111
a 37 112
a 37 113
a 37 114
a 37 115
a 37 116
a 37 117
a 37 118
a 37 119
a 37 120
a 37 121
a 37 162
a 37 122
a 37 123
a 37 124
a 37 125
a 37 154
a 37 126
a 37 127
a 37 128
a 37 129
a 37 130
a 37 131
a 37 155
a 37 132
a 37 133
a 37 134
a 37 135
a 37 136
a 37 157
a 37 137
a 37 138
a 37 139
a 37 17
a 37 21
a 37 142
a 37 146
a 37 74
a 37 76
a 37 156
a 37 106
a 37 145
a 38 1
a 38 2
a 38 158
a 38 3
a 38 4
a 38 6
a 38 7
a 38 8
a 38 9
a 38 10
a 38 11
a 38 12
a 38 13
a 38 14
a 38 15
a 38 16
a 38 17
a 38 18
a 38 19
a 38 20
a 38 21
a 38 140
a 38 22
a 38 70
a 38 24
a 38 25
a 38 26
a 38 141
a 38 27
a 38 28
a 38 29
a 38 30
a 38 31
a 38 32
a 38 33
a 38 142
a 38 23
a 38 34
a 38 73
a 38 36
a 38 37
a 38 132
a 38 39
a 38 40
a 38 41
a 38 42
a 38 43
a 38 44
a 38 45
a 38 46
a 38 47
a 38 48
a 38 49
a 38 50
a 38 51
a 38 52
a 38 54
a 38 159
a 38 5
a 38 57
a 38 160
a 38 59
a 38 60
a 38 61
a 38 144
a 38 62
a 38 63
a 38 64
a 38 65
a 38 67
a 38 68
a 38 161
a 38 146
a 38 69
a 38 147
a 38 71
a 38 72
a 38 35
a 38 75
a 38 76
a 38 77
a 38 78
a 38 149
a 38 79
a 38 80
a 38 81
a 38 82
a 38 163
a 38 83
a 38 150
a 38 84
a 38 85
a 38 86
a 38 87
a 38 88
a 38 89
a 38 90
a 38 91
a 38 92
a 38 93
a 38 151
a 38 94
a 38 95
a 38 96
a 38 97
a 38 98
a 38 99
a 38 100
a 38 102
a 38 164
a 38 103
a 38 104
a 38 105
a 38 55
a 38 156
a 38 106
a 38 107
a 38 108
a 38 110
a 38 153
a 38 111
a 38 112
a 38 113
a 38 114
a 38 115
a 38 116
a 38 117
a 38 118
a 38 119
a 38 120
a 38 121
a 38 122
a 38 123
a 38 124
a 38 125
a 38 126
a 38 127
a 38 129
a 38 130
a 38 131
a 38 133
a 38 134
a 38 135
a 38 157
a 38 137
a 38 138
a 38 139
a 38 53
a 38 56
a 38 58
a 38 66
a 38 145
a 38 74
a 38 148
a 38 152
a 38 109
a 38 154
a 38 128
a 38 136
a 38 101
a 38 162
a 38 155
a 38 143
a 39 1
a 39 2
a 39 56
a 39 158
a 39 3
a 39 4
a 39 6
a 39 7
a 39 8
a 39 9
a 39 10
a 39 11
a 39 12
a 39 13
a 39 14
a 39 15
a 39 16
a 39 17
a 39 18
a 39 19
a 39 20
a 39 21
a 39 140
a 39 22
a 39 70
a 39 24
a 39 25
a 39 26
a 39 141
a 39 27
a 39 28
a 39 29
a 39 30
a 39 31
a 39 32
a 39 33
a 39 142
a 39 23
a 39 34
a 39 73
a 39 36
a 39 37
a 39 38
a 39 5
a 39 41
a 39 42
a 39 43
a 39 44
a 39 45
a 39 143
a 39 46
a 39 47
a 39 48
a 39 49
a 39 50
a 39 51
a 39 52
a 39 54
a 39 159
a 39 57
a 39 160
a 39 58
a 39 59
a 39 60
a 39 61
a 39 144
a 39 63
a 39 64
a 39 65
a 39 66
a 39 145
a 39 67
a 39 68
a 39 161
a 39 146
a 39 69
a 39 147
a 39 71
a 39 72
a 39 35
a 39 74
a 39 148
a 39 75
a 39 76
a 39 77
a 39 78
a 39 149
a 39 79
a 39 81
a 39 163
a 39 83
a 39 150
a 39 84
a 39 85
a 39 86
a 39 87
a 39 88
a 39 89
a 39 90
a 39 91
a 39 92
a 39 93
a 39 151
a 39 94
a 39 95
a 39 96
a 39 97
a 39 99
a 39 100
a 39 101
a 39 102
a 39 164
a 39 104
a 39 105
a 39 55
a 39 156
a 39 106
a 39 152
a 39 107
a 39 108
a 39 109
a 39 110
a 39 153
a 39 111
a 39 112
a 39 113
a 39 114
a 39 115
a 39 116
a 39 117
a 39 118
a 39 119
a 39 120
a 39 121
a 39 162
a 39 122
a 39 123
a 39 124
a 39 125
a 39 154
a 39 126
a 39 127
a 39 128
a 39 129
a 39 130
a 39 131
a 39 155
a 39 132
a 39 133
a 39 134
a 39 135
a 39 157
a 39 137
a 39 138
a 39 139
a 39 98
a 39 103
a 39 53
a 39 62
a 39 40
a 39 80
a 39 136
a 39 82
a 40 1
a 40 4
a 40 6
a 40 7
a 40 8
a 40 9
a 40 11
a 40 12
a 40 13
a 40 14
a 40 16
a 40 17
a 40 18
a 40 19
a 40 20
a 40 22
a 40 70
a 40 24
a 40 26
a 40 29
a 40 30
a 40 31
a 40 32
a 40 33
a 40 23
a 40 34
a 40 73
a 40 36
a 40 37
a 40 38
a 40 61
a 40 132
a 40 35
a 40 41
a 40 42
a 40 43
a 40 44
a 40 46
a 40 48
a 40 50
a 40 52
a 40 53
a 40 5
a 40 57
a 40 59
a 40 60
a 40 62
a 40 63
a 40 64
a 40 65
a 40 145
a 40 67
a 40 68
a 40 146
a 40 69
a 40 147
a 40 71
a 40 75
a 40 76
a 40 78
a 40 79
a 40 80
a 40 81
a 40 82
a 40 161
a 40 83
a 40 84
a 40 115
a 40 87
a 40 88
a 40 89
a 40 90
a 40 91
a 40 92
a 40 94
a 40 95
a 40 98
a 40 99
a 40 100
a 40 102
a 40 103
a 40 104
a 40 106
a 40 107
a 40 110
a 40 153
a 40 111
a 40 112
a 40 114
a 40 116
a 40 117
a 40 118
a 40 119
a 40 121
a 40 122
a 40 123
a 40 124
a 40 125
a 40 126
a 40 129
a 40 130
a 40 131
a 40 134
a 40 135
a 40 136
a 40 137
a 40 138
a 40 139
a 40 15
a 40 141
a 40 93
a 40 72
a 40 54
a 40 55
a 40 58
a 40 144
a 40 28
a 40 148
a 40 56
a 40 149
a 40 85
a 40 86
a 40 96
a 40 97
a 40 105
a 40 152
a 40 113
a 40 128
a 40 133
a 40 157
a 40 2
a 40 10
a 40 25
a 40 49
a 40 66
a 40 74
a 40 77
a 40 151
a 40 164
a 40 108
a 40 154
a 40 140
a 40 101
a 40 47
a 40 160
a 40 109
a 40 127
a 40 155
a 40 3
a 40 27
a 40 156
a 40 39
a 40 162
a 40 21
a 40 120
a 40 159
a 40 51
a 40 158
a 40 150
a 40 142
a 40 143
a 40 45
a 40 163
a 41 1
a 41 158
a 41 4
a 41 6
a 41 7
a 41 9
a 41 11
a 41 12
a 41 14
a 41 15
a 41 16
a 41 17
a 41 19
a 41 20
a 41 22
a 41 70
a 41 24
a 41 25
a 41 26
a 41 141
a 41 27
a 41 29
a 41 30
a 41 31
a 41 32
a 41 33
a 41 23
a 41 34
a 41 73
a 41 36
a 41 37
a 41 38
a 41 39
a 41 40
a 41 61
a 41 132
a 41 93
a 41 72
a 41 35
a 41 42
a 41 43
a 41 44
a 41 45
a 41 48
a 41 49
a 41 50
a 41 52
a 41 53
a 41 54
a 41 159
a 41 5
a 41 57
a 41 58
a 41 59
a 41 60
a 41 62
a 41 63
a 41 64
a 41 65
a 41 66
a 41 145
a 41 67
a 41 68
a 41 161
a 41 146
a 41 69
a 41 147
a 41 71
a 41 148
a 41 75
a 41 77
a 41 78
a 41 149
a 41 79
a 41 80
a 41 81
a 41 82
a 41 163
a 41 83
a 41 84
a 41 85
a 41 86
a 41 87
a 41 88
a 41 89
a 41 90
a 41 91
a 41 92
a 41 151
a 41 94
a 41 95
a 41 96
a 41 97
a 41 98
a 41 100
a 41 102
a 41 164
a 41 103
a 41 104
a 41 55
a 41 106
a 41 107
a 41 108
a 41 109
a 41 110
a 41 153
a 41 111
a 41 112
a 41 113
a 41 114
a 41 115
a 41 116
a 41 117
a 41 118
a 41 119
a 41 120
a 41 121
a 41 122
a 41 123
a 41 124
a 41 125
a 41 126
a 41 127
a 41 128
a 41 129
a 41 130
a 41 131
a 41 133
a 41 134
a 41 135
a 41 136
a 41 137
a 41 138
a 41 139
a 41 18
a 41 21
a 41 140
a 41 144
a 41 28
a 41 76
a 41 105
a 41 156
a 41 56
a 41 8
a 41 10
a 41 13
a 41 142
a 41 47
a 41 51
a 41 160
a 41 150
a 41 101
a 41 155
a 41 46
a 41 99
a 41 152
a 41 162
a 41 154
a 41 3
a 41 74
a 41 157
a 41 2
a 41 143
a 42 1
a 42 2
a 42 56
a 42 158
a 42 3
a 42 4
a 42 6
a 42 7
a 42 8
a 42 10
a 42 11
a 42 12
a 42 13
a 42 14
a 42 15
a 42 16
a 42 17
a 42 18
a 42 19
a 42 20
a 42 21
a 42 140
a 42 22
a 42 70
a 42 24
a 42 25
a 42 26
a 42 141
a 42 27
a 42 28
a 42 29
a 42 30
a 42 31
a 42 32
a 42 142
a 42 23
a 42 34
a 42 73
a 42 36
a 42 37
a 42 38
a 42 39
a 42 40
a 42 41
a 42 5
a 42 43
a 42 44
a 42 45
a 42 143
a 42 46
a 42 47
a 42 48
a 42 49
a 42 50
a 42 51
a 42 52
a 42 54
a 42 159
a 42 57
a 42 160
a 42 58
a 42 59
a 42 60
a 42 144
a 42 61
a 42 64
a 42 65
a 42 66
a 42 67
a 42 68
a 42 161
a 42 146
a 42 69
a 42 147
a 42 71
a 42 72
a 42 35
a 42 74
a 42 75
a 42 76
a 42 77
a 42 78
a 42 149
a 42 79
a 42 81
a 42 163
a 42 83
a 42 150
a 42 85
a 42 86
a 42 87
a 42 88
a 42 89
a 42 90
a 42 91
a 42 92
a 42 93
a 42 151
a 42 94
a 42 96
a 42 97
a 42 99
a 42 100
a 42 101
a 42 164
a 42 104
a 42 105
a 42 55
a 42 156
a 42 106
a 42 152
a 42 107
a 42 108
a 42 110
a 42 153
a 42 112
a 42 113
a 42 114
a 42 115
a 42 116
a 42 117
a 42 118
a 42 119
a 42 120
a 42 162
a 42 122
a 42 125
a 42 154
a 42 126
a 42 127
a 42 128
a 42 129
a 42 131
a 42 155
a 42 132
a 42 133
a 42 134
a 42 135
a 42 157
a 42 137
a 42 138
a 42 139
a 42 9
a 42 33
a 42 62
a 42 63
a 42 148
a 42 145
a 42 84
a 42 95
a 42 103
a 42 109
a 42 111
a 42 121
a 42 123
a 42 124
a 42 136
a 42 53
a 42 80
a 42 98
a 42 102
a 42 130
a 43 1
a 43 56
a 43 3
a 43 4
a 43 6
a 43 7
a 43 8
a 43 9
a 43 11
a 43 12
a 43 14
a 43 16
a 43 17
a 43 19
a 43 20
a 43 22
a 43 24
a 43 26
a 43 141
a 43 27
a 43 29
a 43 30
a 43 31
a 43 32
a 43 33
a 43 142
a 43 23
a 43 34
a 43 73
a 43 36
a 43 37
a 43 38
a 43 39
a 43 40
a 43 41
a 43 42
a 43 5
a 43 61
a 43 132
a 43 93
a 43 35
a 43 44
a 43 47
a 43 48
a 43 50
a 43 52
a 43 53
a 43 54
a 43 55
a 43 57
a 43 59
a 43 60
a 43 62
a 43 63
a 43 64
a 43 65
a 43 66
a 43 67
a 43 68
a 43 146
a 43 71
a 43 75
a 43 77
a 43 78
a 43 149
a 43 79
a 43 80
a 43 81
a 43 82
a 43 83
a 43 150
a 43 84
a 43 85
a 43 86
a 43 87
a 43 89
a 43 90
a 43 91
a 43 92
a 43 95
a 43 97
a 43 98
a 43 99
a 43 100
a 43 101
a 43 102
a 43 103
a 43 104
a 43 106
a 43 152
a 43 107
a 43 110
a 43 153
a 43 111
a 43 112
a 43 113
a 43 115
a 43 116
a 43 118
a 43 119
a 43 121
a 43 122
a 43 123
a 43 124
a 43 125
a 43 126
a 43 127
a 43 129
a 43 130
a 43 131
a 43 133
a 43 134
a 43 135
a 43 137
a 43 138
a 43 139
a 43 10
a 43 15
a 43 18
a 43 21
a 43 70
a 43 25
a 43 49
a 43 58
a 43 69
a 43 147
a 43 148
a 43 76
a 43 88
a 43 94
a 43 96
a 43 105
a 43 108
a 43 114
a 43 117
a 43 162
a 43 128
a 43 13
a 43 140
a 43 28
a 43 72
a 43 45
a 43 46
a 43 144
a 43 74
a 43 151
a 43 164
a 43 154
a 43 155
a 43 2
a 43 160
a 43 145
a 43 156
a 43 109
a 43 120
a 43 136
a 43 161
a 43 157
a 43 158
a 43 51
a 43 143
a 43 159
a 43 163
a 44 1
a 44 2
a 44 56
a 44 158
a 44 3
a 44 4
a 44 6
a 44 7
a 44 8
a 44 9
a 44 10
a 44 11
a 44 13
a 44 14
a 44 15
a 44 18
a 44 19
a 44 20
a 44 21
a 44 140
a 44 22
a 44 70
a 44 24
a 44 26
a 44 141
a 44 27
a 44 28
a 44 29
a 44 31
a 44 33
a 44 142
a 44 34
a 44 73
a 44 36
a 44 37
a 44 38
a 44 39
a 44 40
a 44 41
a 44 42
a 44 43
a 44 132
a 44 93
a 44 45
a 44 46
a 44 47
a 44 48
a 44 49
a 44 50
a 44 51
a 44 52
a 44 54
a 44 78
a 44 57
a 44 160
a 44 58
a 44 60
a 44 144
a 44 61
a 44 64
a 44 66
a 44 67
a 44 68
a 44 161
a 44 146
a 44 69
a 44 147
a 44 72
a 44 35
a 44 74
a 44 148
a 44 76
a 44 77
a 44 159
a 44 149
a 44 80
a 44 81
a 44 82
a 44 163
a 44 83
a 44 150
a 44 84
a 44 85
a 44 86
a 44 87
a 44 88
a 44 89
a 44 90
a 44 91
a 44 92
a 44 151
a 44 94
a 44 95
a 44 96
a 44 97
a 44 99
a 44 100
a 44 101
a 44 102
a 44 104
a 44 105
a 44 106
a 44 152
a 44 107
a 44 109
a 44 110
a 44 153
a 44 111
a 44 112
a 44 113
a 44 115
a 44 108
a 44 117
a 44 118
a 44 119
a 44 120
a 44 121
a 44 162
a 44 122
a 44 123
a 44 124
a 44 125
a 44 154
a 44 127
a 44 128
a 44 131
a 44 155
a 44 133
a 44 156
a 44 135
a 44 157
a 44 137
a 44 138
a 44 139
a 44 5
a 44 12
a 44 16
a 44 17
a 44 25
a 44 71
a 44 30
a 44 32
a 44 23
a 44 143
a 44 59
a 44 62
a 44 63
a 44 65
a 44 75
a 44 79
a 44 164
a 44 55
a 44 114
a 44 116
a 44 126
a 44 129
a 44 130
a 44 136
a 44 98
a 44 134
a 44 53
a 45 1
a 45 2
a 45 56
a 45 158
a 45 3
a 45 6
a 45 7
a 45 8
a 45 10
a 45 13
a 45 15
a 45 16
a 45 18
a 45 19
a 45 20
a 45 21
a 45 140
a 45 22
a 45 70
a 45 24
a 45 26
a 45 141
a 45 27
a 45 28
a 45 29
a 45 31
a 45 32
a 45 142
a 45 34
a 45 37
a 45 38
a 45 39
a 45 41
a 45 42
a 45 44
a 45 93
a 45 143
a 45 46
a 45 47
a 45 49
a 45 50
a 45 51
a 45 52
a 45 54
a 45 55
a 45 57
a 45 160
a 45 58
a 45 60
a 45 144
a 45 61
a 45 64
a 45 66
a 45 67
a 45 68
a 45 161
a 45 146
a 45 69
a 45 147
a 45 72
a 45 35
a 45 74
a 45 148
a 45 75
a 45 76
a 45 77
a 45 159
a 45 149
a 45 79
a 45 81
a 45 163
a 45 83
a 45 150
a 45 84
a 45 85
a 45 86
a 45 87
a 45 89
a 45 90
a 45 91
a 45 151
a 45 94
a 45 95
a 45 96
a 45 97
a 45 99
a 45 100
a 45 101
a 45 164
a 45 105
a 45 106
a 45 152
a 45 108
a 45 109
a 45 153
a 45 113
a 45 115
a 45 116
a 45 117
a 45 118
a 45 119
a 45 120
a 45 122
a 45 154
a 45 126
a 45 127
a 45 128
a 45 131
a 45 155
a 45 132
a 45 133
a 45 156
a 45 157
a 45 138
a 45 139
a 45 4
a 45 12
a 45 14
a 45 25
a 45 33
a 45 73
a 45 36
a 45 48
a 45 62
a 45 65
a 45 88
a 45 104
a 45 107
a 45 110
a 45 111
a 45 112
a 45 114
a 45 121
a 45 162
a 45 123
a 45 125
a 45 129
a 45 135
a 45 137
a 45 9
a 45 11
a 45 43
a 45 71
a 45 30
a 45 124
a 45 17
a 45 78
a 45 103
a 45 134
a 45 23
a 45 5
a 45 63
a 45 80
a 45 102
a 45 53
a 45 82
a 45 40
a 45 98
a 46 1
a 46 2
a 46 56
a 46 158
a 46 3
a 46 4
a 46 6
a 46 7
a 46 8
a 46 9
a 46 10
a 46 11
a 46 12
a 46 13
a 46 14
a 46 15
a 46 16
a 46 18
a 46 19
a 46 20
a 46 21
a 46 140
a 46 22
a 46 70
a 46 24
a 46 25
a 46 26
a 46 141
a 46 27
a 46 28
a 46 29
a 46 30
a 46 31
a 46 32
a 46 33
a 46 142
a 46 23
a 46 34
a 46 73
a 46 36
a 46 37
a 46 38
a 46 39
a 46 40
a 46 42
a 46 44
a 46 45
a 46 143
a 46 5
a 46 93
a 46 47
a 46 48
a 46 49
a 46 50
a 46 51
a 46 54
a 46 159
a 46 57
a 46 160
a 46 58
a 46 60
a 46 61
a 46 144
a 46 63
a 46 64
a 46 65
a 46 66
a 46 67
a 46 68
a 46 161
a 46 146
a 46 69
a 46 147
a 46 72
a 46 35
a 46 74
a 46 148
a 46 75
a 46 76
a 46 77
a 46 78
a 46 149
a 46 80
a 46 163
a 46 150
a 46 85
a 46 86
a 46 87
a 46 88
a 46 89
a 46 90
a 46 91
a 46 151
a 46 94
a 46 95
a 46 96
a 46 97
a 46 98
a 46 99
a 46 100
a 46 101
a 46 164
a 46 104
a 46 105
a 46 55
a 46 156
a 46 106
a 46 152
a 46 107
a 46 108
a 46 109
a 46 110
a 46 153
a 46 111
a 46 112
a 46 113
a 46 114
a 46 115
a 46 116
a 46 117
a 46 118
a 46 119
a 46 120
a 46 121
a 46 162
a 46 122
a 46 123
a 46 124
a 46 125
a 46 154
a 46 127
a 46 128
a 46 131
a 46 155
a 46 132
a 46 133
a 46 134
a 46 135
a 46 157
a 46 137
a 46 138
a 46 139
a 46 126
a 46 84
a 46 43
a 46 52
a 46 53
a 46 71
a 46 83
a 46 17
a 46 41
a 46 79
a 46 81
a 46 103
a 46 62
a 46 136
a 46 129
a 46 102
a 46 82
a 46 145
a 47 1
a 47 2
a 47 56
a 47 158
a 47 3
a 47 4
a 47 6
a 47 7
a 47 9
a 47 10
a 47 11
a 47 13
a 47 15
a 47 16
a 47 18
a 47 19
a 47 20
a 47 21
a 47 140
a 47 22
a 47 70
a 47 24
a 47 25
a 47 26
a 47 141
a 47 27
a 47 28
a 47 29
a 47 31
a 47 32
a 47 142
a 47 23
a 47 34
a 47 73
a 47 36
a 47 37
a 47 38
a 47 39
a 47 42
a 47 43
a 47 44
a 47 45
a 47 143
a 47 46
a 47 5
a 47 61
a 47 93
a 47 35
a 47 48
a 47 49
a 47 50
a 47 51
a 47 52
a 47 54
a 47 159
a 47 57
a 47 160
a 47 58
a 47 59
a 47 60
a 47 144
a 47 64
a 47 65
a 47 66
a 47 68
a 47 161
a 47 146
a 47 69
a 47 147
a 47 72
a 47 74
a 47 148
a 47 75
a 47 76
a 47 77
a 47 78
a 47 149
a 47 163
a 47 83
a 47 150
a 47 84
a 47 85
a 47 86
a 47 87
a 47 88
a 47 89
a 47 90
a 47 91
a 47 151
a 47 94
a 47 95
a 47 96
a 47 97
a 47 99
a 47 100
a 47 101
a 47 164
a 47 104
a 47 105
a 47 55
a 47 156
a 47 106
a 47 152
a 47 107
a 47 108
a 47 109
a 47 110
a 47 153
a 47 112
a 47 113
a 47 114
a 47 115
a 47 116
a 47 117
a 47 118
a 47 119
a 47 120
a 47 162
a 47 122
a 47 123
a 47 124
a 47 125
a 47 154
a 47 127
a 47 128
a 47 129
a 47 130
a 47 131
a 47 155
a 47 132
a 47 133
a 47 134
a 47 136
a 47 157
a 47 137
a 47 138
a 47 8
a 47 12
a 47 71
a 47 33
a 47 67
a 47 81
a 47 121
a 47 63
a 47 126
a 47 135
a 47 139
a 47 14
a 47 30
a 47 41
a 47 79
a 47 103
a 47 111
a 47 40
a 47 53
a 47 62
a 47 145
a 47 102
a 47 80
a 47 92
a 47 17
a 47 98
a 47 82
a 48 1
a 48 56
a 48 4
a 48 6
a 48 7
a 48 8
a 48 9
a 48 10
a 48 11
a 48 12
a 48 14
a 48 15
a 48 16
a 48 20
a 48 22
a 48 70
a 48 24
a 48 25
a 48 27
a 48 28
a 48 29
a 48 30
a 48 31
a 48 32
a 48 33
a 48 23
a 48 34
a 48 73
a 48 36
a 48 37
a 48 38
a 48 39
a 48 40
a 48 41
a 48 42
a 48 43
a 48 44
a 48 46
a 48 47
a 48 5
a 48 61
a 48 132
a 48 50
a 48 52
a 48 53
a 48 54
a 48 55
a 48 57
a 48 59
a 48 60
a 48 62
a 48 63
a 48 64
a 48 65
a 48 66
a 48 145
a 48 67
a 48 68
a 48 69
a 48 71
a 48 35
a 48 75
a 48 76
a 48 77
a 48 78
a 48 79
a 48 80
a 48 81
a 48 82
a 48 161
a 48 83
a 48 150
a 48 84
a 48 85
a 48 86
a 48 87
a 48 89
a 48 90
a 48 92
a 48 151
a 48 95
a 48 96
a 48 97
a 48 98
a 48 99
a 48 100
a 48 102
a 48 103
a 48 104
a 48 106
a 48 152
a 48 107
a 48 108
a 48 110
a 48 111
a 48 112
a 48 113
a 48 114
a 48 116
a 48 118
a 48 119
a 48 120
a 48 121
a 48 162
a 48 122
a 48 123
a 48 124
a 48 125
a 48 126
a 48 127
a 48 129
a 48 130
a 48 131
a 48 133
a 48 134
a 48 135
a 48 137
a 48 139
a 48 17
a 48 18
a 48 19
a 48 21
a 48 141
a 48 45
a 48 101
a 48 93
a 48 72
a 48 58
a 48 148
a 48 115
a 48 91
a 48 94
a 48 153
a 48 117
a 48 154
a 48 136
a 48 138
a 48 2
a 48 158
a 48 13
a 48 140
a 48 26
a 48 49
a 48 160
a 48 144
a 48 147
a 48 74
a 48 88
a 48 164
a 48 128
a 48 155
a 48 157
a 48 51
a 48 146
a 48 163
a 48 105
a 48 109
a 48 3
a 48 142
a 48 159
a 48 156
a 48 149
a 49 1
a 49 2
a 49 56
a 49 158
a 49 3
a 49 4
a 49 6
a 49 7
a 49 8
a 49 9
a 49 10
a 49 11
a 49 13
a 49 15
a 49 16
a 49 19
a 49 20
a 49 21
a 49 140
a 49 22
a 49 70
a 49 24
a 49 25
a 49 26
a 49 141
a 49 27
a 49 28
a 49 29
a 49 31
a 49 32
a 49 33
a 49 142
a 49 34
a 49 73
a 49 36
a 49 37
a 49 38
a 49 39
a 49 41
a 49 42
a 49 44
a 49 45
a 49 143
a 49 46
a 49 47
a 49 93
a 49 35
a 49 50
a 49 51
a 49 52
a 49 54
a 49 55
a 49 57
a 49 160
a 49 58
a 49 60
a 49 144
a 49 64
a 49 66
a 49 67
a 49 68
a 49 161
a 49 146
a 49 69
a 49 147
a 49 72
a 49 74
a 49 148
a 49 75
a 49 76
a 49 77
a 49 159
a 49 149
a 49 81
a 49 163
a 49 83
a 49 150
a 49 84
a 49 85
a 49 86
a 49 87
a 49 88
a 49 89
a 49 90
a 49 91
a 49 151
a 49 94
a 49 95
a 49 96
a 49 97
a 49 99
a 49 100
a 49 101
a 49 102
a 49 164
a 49 103
a 49 104
a 49 105
a 49 106
a 49 152
a 49 107
a 49 108
a 49 109
a 49 110
a 49 153
a 49 111
a 49 112
a 49 113
a 49 115
a 49 116
a 49 117
a 49 118
a 49 119
a 49 120
a 49 121
a 49 162
a 49 122
a 49 123
a 49 124
a 49 125
a 49 154
a 49 126
a 49 127
a 49 128
a 49 131
a 49 155
a 49 132
a 49 133
a 49 156
a 49 135
a 49 157
a 49 137
a 49 138
a 49 139
a 49 5
a 49 14
a 49 18
a 49 43
a 49 53
a 49 61
a 49 65
a 49 79
a 49 114
a 49 63
a 49 12
a 49 30
a 49 23
a 49 40
a 49 48
a 49 78
a 49 130
a 49 17
a 49 71
a 49 62
a 49 129
a 49 80
a 49 82
a 49 98
a 49 59
a 50 1
a 50 2
a 50 56
a 50 158
a 50 3
a 50 4
a 50 6
a 50 7
a 50 8
a 50 9
a 50 10
a 50 11
a 50 12
a 50 13
a 50 14
a 50 15
a 50 16
a 50 18
a 50 19
a 50 20
a 50 21
a 50 140
a 50 22
a 50 70
a 50 24
a 50 25
a 50 26
a 50 141
a 50 27
a 50 28
a 50 29
a 50 30
a 50 31
a 50 32
a 50 33
a 50 142
a 50 34
a 50 73
a 50 36
a 50 37
a 50 38
a 50 39
a 50 40
a 50 41
a 50 42
a 50 43
a 50 44
a 50 45
a 50 143
a 50 46
a 50 47
a 50 48
a 50 49
a 50 5
a 50 51
a 50 52
a 50 54
a 50 159
a 50 57
a 50 160
a 50 58
a 50 60
a 50 61
a 50 144
a 50 62
a 50 63
a 50 64
a 50 65
a 50 66
a 50 145
a 50 67
a 50 68
a 50 161
a 50 146
a 50 69
a 50 147
a 50 71
a 50 72
a 50 35
a 50 74
a 50 148
a 50 75
a 50 76
a 50 77
a 50 78
a 50 149
a 50 79
a 50 80
a 50 81
a 50 163
a 50 83
a 50 150
a 50 84
a 50 86
a 50 87
a 50 88
a 50 89
a 50 90
a 50 91
a 50 92
a 50 93
a 50 151
a 50 94
a 50 95
a 50 96
a 50 97
a 50 99
a 50 100
a 50 101
a 50 164
a 50 103
a 50 104
a 50 105
a 50 55
a 50 156
a 50 106
a 50 152
a 50 107
a 50 108
a 50 110
a 50 153
a 50 111
a 50 112
a 50 113
a 50 114
a 50 115
a 50 116
a 50 117
a 50 118
a 50 119
a 50 120
a 50 121
a 50 162
a 50 122
a 50 123
a 50 124
a 50 125
a 50 154
a 50 126
a 50 127
a 50 128
a 50 129
a 50 131
a 50 155
a 50 132
a 50 133
a 50 134
a 50 135
a 50 136
a 50 157
a 50 137
a 50 138
a 50 139
a 50 17
a 50 53
a 50 85
a 50 98
a 50 102
a 50 109
a 50 23
a 50 130
a 50 82
a 50 59
a 51 1
a 51 2
a 51 56
a 51 158
a 51 3
a 51 7
a 51 9
a 51 10
a 51 11
a 51 13
a 51 15
a 51 18
a 51 19
a 51 20
a 51 21
a 51 140
a 51 22
a 51 70
a 51 24
a 51 25
a 51 26
a 51 141
a 51 27
a 51 28
a 51 29
a 51 32
a 51 33
a 51 142
a 51 34
a 51 36
a 51 37
a 51 38
a 51 39
a 51 42
a 51 44
a 51 45
a 51 143
a 51 46
a 51 47
a 51 49
a 51 50
a 51 61
a 51 93
a 51 52
a 51 54
a 51 55
a 51 57
a 51 160
a 51 58
a 51 60
a 51 144
a 51 62
a 51 63
a 51 64
a 51 65
a 51 66
a 51 67
a 51 68
a 51 161
a 51 146
a 51 69
a 51 147
a 51 72
a 51 35
a 51 74
a 51 148
a 51 76
a 51 77
a 51 159
a 51 149
a 51 79
a 51 163
a 51 83
a 51 150
a 51 84
a 51 85
a 51 86
a 51 87
a 51 88
a 51 89
a 51 90
a 51 91
a 51 151
a 51 94
a 51 95
a 51 96
a 51 97
a 51 99
a 51 100
a 51 101
a 51 164
a 51 103
a 51 105
a 51 106
a 51 152
a 51 107
a 51 109
a 51 110
a 51 153
a 51 111
a 51 113
a 51 115
a 51 108
a 51 117
a 51 119
a 51 120
a 51 121
a 51 162
a 51 122
a 51 123
a 51 124
a 51 154
a 51 127
a 51 128
a 51 130
a 51 131
a 51 155
a 51 133
a 51 156
a 51 135
a 51 157
a 51 137
a 51 138
a 51 139
a 51 4
a 51 16
a 51 30
a 51 31
a 51 73
a 51 75
a 51 104
a 51 112
a 51 8
a 51 12
a 51 41
a 51 81
a 51 116
a 51 132
a 51 134
a 51 48
a 51 53
a 51 78
a 51 118
a 51 80
a 51 92
a 51 6
a 51 43
a 51 126
a 51 5
a 51 71
a 51 125
a 51 40
a 51 102
a 51 17
a 51 114
a 51 23
a 51 129
a 51 82
a 51 98
a 52 1
a 52 2
a 52 56
a 52 158
a 52 3
a 52 4
a 52 6
a 52 7
a 52 8
a 52 9
a 52 10
a 52 11
a 52 12
a 52 13
a 52 14
a 52 15
a 52 16
a 52 17
a 52 18
a 52 19
a 52 20
a 52 21
a 52 22
a 52 70
a 52 24
a 52 25
a 52 26
a 52 141
a 52 27
a 52 28
a 52 29
a 52 30
a 52 31
a 52 32
a 52 33
a 52 142
a 52 23
a 52 34
a 52 73
a 52 36
a 52 37
a 52 38
a 52 39
a 52 40
a 52 41
a 52 42
a 52 43
a 52 44
a 52 45
a 52 143
a 52 47
a 52 48
a 52 49
a 52 50
a 52 51
a 52 5
a 52 53
a 52 54
a 52 55
a 52 57
a 52 160
a 52 58
a 52 59
a 52 60
a 52 61
a 52 144
a 52 62
a 52 63
a 52 64
a 52 65
a 52 66
a 52 67
a 52 68
a 52 146
a 52 69
a 52 147
a 52 71
a 52 72
a 52 35
a 52 148
a 52 75
a 52 76
a 52 77
a 52 78
a 52 149
a 52 79
a 52 80
a 52 81
a 52 82
a 52 163
a 52 83
a 52 150
a 52 84
a 52 85
a 52 86
a 52 87
a 52 88
a 52 89
a 52 90
a 52 92
a 52 93
a 52 94
a 52 95
a 52 96
a 52 97
a 52 98
a 52 99
a 52 100
a 52 101
a 52 102
a 52 164
a 52 103
a 52 104
a 52 105
a 52 106
a 52 152
a 52 107
a 52 109
a 52 110
a 52 153
a 52 111
a 52 112
a 52 113
a 52 115
a 52 108
a 52 117
a 52 118
a 52 119
a 52 120
a 52 121
a 52 162
a 52 122
a 52 123
a 52 124
a 52 125
a 52 154
a 52 126
a 52 127
a 52 128
a 52 129
a 52 130
a 52 131
a 52 132
a 52 133
a 52 156
a 52 135
a 52 157
a 52 137
a 52 138
a 52 139
a 52 145
a 52 74
a 52 151
a 52 114
a 52 116
a 52 155
a 52 136
a 52 140
a 52 46
a 52 159
a 52 91
a 52 161
a 52 134
a 53 1
a 53 6
a 53 7
a 53 9
a 53 11
a 53 12
a 53 14
a 53 16
a 53 17
a 53 19
a 53 20
a 53 22
a 53 70
a 53 26
a 53 29
a 53 30
a 53 31
a 53 33
a 53 23
a 53 73
a 53 36
a 53 37
a 53 40
a 53 41
a 53 43
a 53 48
a 53 52
a 53 66
a 53 125
a 53 114
a 53 137
a 53 116
a 53 117
a 53 118
a 53 121
a 53 62
a 53 76
a 53 77
a 53 78
a 53 124
a 53 61
a 53 80
a 53 145
a 53 82
a 53 132
a 53 139
a 53 87
a 53 134
a 53 115
a 53 126
a 53 88
a 53 89
a 53 90
a 53 92
a 53 129
a 53 119
a 53 130
a 53 97
a 53 100
a 53 59
a 53 5
a 53 57
a 53 133
a 53 110
a 53 103
a 53 60
a 53 135
a 53 79
a 53 106
a 53 63
a 53 71
a 53 107
a 53 64
a 53 65
a 53 81
a 53 111
a 53 98
a 53 4
a 53 21
a 53 25
a 53 32
a 53 38
a 53 49
a 53 50
a 53 102
a 53 69
a 53 35
a 53 122
a 53 128
a 53 95
a 53 84
a 53 56
a 53 8
a 53 15
a 53 24
a 53 42
a 53 46
a 53 68
a 53 148
a 53 55
a 53 164
a 53 136
a 53 96
a 53 158
a 53 10
a 53 140
a 53 93
a 53 27
a 53 34
a 53 39
a 53 47
a 53 123
a 53 51
a 53 101
a 53 54
a 53 67
a 53 75
a 53 91
a 53 105
a 53 108
a 53 112
a 53 162
a 53 154
a 53 131
a 53 151
a 53 58
a 53 104
a 53 153
a 53 74
a 53 161
a 53 149
a 53 138
a 53 146
a 53 155
a 53 147
a 53 83
a 53 2
a 53 3
a 53 141
a 53 44
a 53 144
a 53 159
a 53 85
a 53 86
a 53 94
a 53 99
a 53 127
a 53 157
a 53 113
a 53 18
a 53 142
a 53 163
a 53 109
a 53 13
a 53 45
a 53 152
a 53 120
a 53 156
a 53 143
a 53 72
a 53 150
a 54 1
a 54 2
a 54 56
a 54 158
a 54 3
a 54 4
a 54 6
a 54 7
a 54 8
a 54 9
a 54 10
a 54 11
a 54 12
a 54 13
a 54 15
a 54 16
a 54 17
a 54 18
a 54 19
a 54 20
a 54 21
a 54 22
a 54 70
a 54 24
a 54 26
a 54 141
a 54 27
a 54 28
a 54 29
a 54 30
a 54 31
a 54 33
a 54 23
a 54 34
a 54 73
a 54 36
a 54 37
a 54 38
a 54 39
a 54 41
a 54 42
a 54 43
a 54 44
a 54 45
a 54 143
a 54 46
a 54 47
a 54 48
a 54 49
a 54 50
a 54 51
a 54 52
a 54 5
a 54 93
a 54 35
a 54 159
a 54 57
a 54 160
a 54 58
a 54 60
a 54 144
a 54 62
a 54 64
a 54 65
a 54 66
a 54 67
a 54 68
a 54 161
a 54 146
a 54 69
a 54 147
a 54 71
a 54 72
a 54 74
a 54 148
a 54 75
a 54 76
a 54 77
a 54 78
a 54 149
a 54 79
a 54 80
a 54 81
a 54 163
a 54 83
a 54 150
a 54 84
a 54 85
a 54 86
a 54 87
a 54 88
a 54 89
a 54 90
a 54 91
a 54 92
a 54 151
a 54 94
a 54 95
a 54 96
a 54 97
a 54 99
a 54 100
a 54 101
a 54 102
a 54 164
a 54 103
a 54 104
a 54 105
a 54 55
a 54 156
a 54 106
a 54 152
a 54 107
a 54 109
a 54 110
a 54 153
a 54 111
a 54 112
a 54 113
a 54 108
a 54 118
a 54 119
a 54 120
a 54 121
a 54 122
a 54 123
a 54 124
a 54 125
a 54 154
a 54 126
a 54 127
a 54 128
a 54 129
a 54 130
a 54 131
a 54 155
a 54 133
a 54 134
a 54 135
a 54 157
a 54 137
a 54 138
a 54 14
a 54 140
a 54 25
a 54 32
a 54 40
a 54 61
a 54 63
a 54 114
a 54 115
a 54 116
a 54 162
a 54 132
a 54 139
a 54 142
a 54 98
a 54 117
a 54 53
a 54 136
a 54 82
a 54 59
a 54 145
a 55 1
a 55 3
a 55 4
a 55 6
a 55 7
a 55 8
a 55 9
a 55 10
a 55 11
a 55 12
a 55 14
a 55 15
a 55 16
a 55 17
a 55 18
a 55 19
a 55 140
a 55 22
a 55 70
a 55 24
a 55 25
a 55 26
a 55 141
a 55 27
a 55 28
a 55 29
a 55 30
a 55 31
a 55 32
a 55 33
a 55 142
a 55 23
a 55 34
a 55 73
a 55 36
a 55 37
a 55 38
a 55 39
a 55 41
a 55 42
a 55 43
a 55 45
a 55 46
a 55 47
a 55 48
a 55 49
a 55 50
a 55 51
a 55 52
a 55 54
a 55 159
a 55 5
a 55 57
a 55 160
a 55 58
a 55 59
a 55 60
a 55 61
a 55 144
a 55 62
a 55 63
a 55 64
a 55 65
a 55 66
a 55 67
a 55 68
a 55 161
a 55 146
a 55 69
a 55 147
a 55 71
a 55 72
a 55 35
a 55 74
a 55 148
a 55 75
a 55 76
a 55 77
a 55 78
a 55 149
a 55 79
a 55 81
a 55 163
a 55 83
a 55 150
a 55 84
a 55 85
a 55 86
a 55 87
a 55 88
a 55 89
a 55 90
a 55 92
a 55 93
a 55 151
a 55 95
a 55 96
a 55 97
a 55 98
a 55 99
a 55 100
a 55 101
a 55 102
a 55 103
a 55 104
a 55 105
a 55 156
a 55 106
a 55 152
a 55 107
a 55 108
a 55 109
a 55 110
a 55 153
a 55 111
a 55 112
a 55 114
a 55 115
a 55 116
a 55 117
a 55 119
a 55 120
a 55 121
a 55 162
a 55 122
a 55 123
a 55 124
a 55 125
a 55 154
a 55 126
a 55 127
a 55 128
a 55 129
a 55 130
a 55 131
a 55 155
a 55 132
a 55 133
a 55 134
a 55 135
a 55 157
a 55 137
a 55 138
a 55 2
a 55 158
a 55 20
a 55 21
a 55 40
a 55 44
a 55 143
a 55 94
a 55 113
a 55 118
a 55 56
a 55 13
a 55 53
a 55 80
a 55 91
a 55 164
a 55 139
a 55 145
a 56 1
a 56 2
a 56 158
a 56 4
a 56 7
a 56 8
a 56 9
a 56 10
a 56 11
a 56 13
a 56 15
a 56 16
a 56 18
a 56 20
a 56 21
a 56 140
a 56 22
a 56 70
a 56 24
a 56 93
a 56 26
a 56 141
a 56 27
a 56 3
a 56 29
a 56 31
a 56 32
a 56 33
a 56 34
a 56 73
a 56 36
a 56 37
a 56 39
a 56 42
a 56 43
a 56 44
a 56 45
a 56 143
a 56 46
a 56 47
a 56 48
a 56 49
a 56 50
a 56 51
a 56 52
a 56 54
a 56 57
a 56 160
a 56 58
a 56 60
a 56 144
a 56 62
a 56 64
a 56 66
a 56 67
a 56 68
a 56 163
a 56 146
a 56 69
a 56 147
a 56 28
a 56 72
a 56 35
a 56 74
a 56 76
a 56 77
a 56 159
a 56 149
a 56 161
a 56 83
a 56 150
a 56 84
a 56 85
a 56 86
a 56 87
a 56 88
a 56 89
a 56 91
a 56 92
a 56 151
a 56 95
a 56 96
a 56 97
a 56 99
a 56 100
a 56 101
a 56 164
a 56 105
a 56 106
a 56 152
a 56 107
a 56 108
a 56 109
a 56 110
a 56 153
a 56 111
a 56 112
a 56 113
a 56 115
a 56 116
a 56 117
a 56 118
a 56 119
a 56 120
a 56 121
a 56 162
a 56 122
a 56 123
a 56 125
a 56 154
a 56 126
a 56 127
a 56 128
a 56 131
a 56 155
a 56 133
a 56 156
a 56 135
a 56 157
a 56 138
a 56 139
a 56 5
a 56 6
a 56 12
a 56 14
a 56 17
a 56 19
a 56 25
a 56 30
a 56 23
a 56 38
a 56 40
a 56 132
a 56 63
a 56 65
a 56 148
a 56 75
a 56 78
a 56 80
a 56 145
a 56 94
a 56 98
a 56 102
a 56 103
a 56 114
a 56 124
a 56 136
a 56 137
a 56 142
a 56 53
a 56 55
a 56 71
a 56 79
a 56 81
a 56 90
a 56 104
a 56 41
a 56 129
a 56 130
a 56 61
a 56 134
a 56 82
a 56 59
a 57 1
a 57 2
a 57 56
a 57 158
a 57 3
a 57 4
a 57 6
a 57 7
a 57 8
a 57 9
a 57 10
a 57 11
a 57 12
a 57 13
a 57 14
a 57 15
a 57 16
a 57 17
a 57 18
a 57 19
a 57 20
a 57 21
a 57 22
a 57 70
a 57 24
a 57 25
a 57 26
a 57 141
a 57 27
a 57 28
a 57 29
a 57 30
a 57 31
a 57 32
a 57 33
a 57 23
a 57 34
a 57 73
a 57 36
a 57 37
a 57 38
a 57 39
a 57 40
a 57 41
a 57 42
a 57 43
a 57 44
a 57 45
a 57 46
a 57 47
a 57 48
a 57 49
a 57 50
a 57 51
a 57 52
a 57 53
a 57 54
a 57 159
a 57 5
a 57 160
a 57 58
a 57 59
a 57 60
a 57 61
a 57 144
a 57 62
a 57 63
a 57 64
a 57 65
a 57 66
a 57 145
a 57 67
a 57 68
a 57 161
a 57 146
a 57 69
a 57 147
a 57 71
a 57 72
a 57 35
a 57 148
a 57 75
a 57 76
a 57 77
a 57 78
a 57 149
a 57 79
a 57 80
a 57 81
a 57 82
a 57 163
a 57 83
a 57 150
a 57 84
a 57 85
a 57 86
a 57 87
a 57 88
a 57 89
a 57 90
a 57 91
a 57 92
a 57 93
a 57 151
a 57 94
a 57 95
a 57 96
a 57 97
a 57 98
a 57 99
a 57 100
a 57 101
a 57 102
a 57 164
a 57 103
a 57 104
a 57 105
a 57 55
a 57 156
a 57 106
a 57 152
a 57 107
a 57 108
a 57 109
a 57 110
a 57 153
a 57 111
a 57 112
a 57 113
a 57 114
a 57 115
a 57 116
a 57 117
a 57 118
a 57 119
a 57 120
a 57 121
a 57 162
a 57 122
a 57 123
a 57 124
a 57 125
a 57 154
a 57 126
a 57 127
a 57 128
a 57 129
a 57 130
a 57 131
a 57 132
a 57 133
a 57 134
a 57 135
a 57 136
a 57 157
a 57 137
a 57 138
a 57 139
a 57 140
a 57 142
a 57 74
a 57 155
a 57 143
a 58 1
a 58 2
a 58 56
a 58 3
a 58 4
a 58 6
a 58 8
a 58 9
a 58 10
a 58 11
a 58 15
a 58 16
a 58 17
a 58 18
a 58 19
a 58 20
a 58 21
a 58 140
a 58 22
a 58 70
a 58 24
a 58 25
a 58 26
a 58 141
a 58 27
a 58 28
a 58 29
a 58 30
a 58 31
a 58 32
a 58 23
a 58 34
a 58 73
a 58 36
a 58 37
a 58 39
a 58 41
a 58 42
a 58 44
a 58 45
a 58 143
a 58 46
a 58 47
a 58 49
a 58 50
a 58 51
a 58 52
a 58 54
a 58 159
a 58 5
a 58 57
a 58 160
a 58 60
a 58 132
a 58 55
a 58 59
a 58 62
a 58 61
a 58 64
a 58 66
a 58 67
a 58 68
a 58 146
a 58 69
a 58 147
a 58 71
a 58 72
a 58 35
a 58 74
a 58 148
a 58 76
a 58 77
a 58 149
a 58 79
a 58 80
a 58 81
a 58 83
a 58 150
a 58 84
a 58 85
a 58 115
a 58 88
a 58 89
a 58 90
a 58 91
a 58 92
a 58 93
a 58 151
a 58 94
a 58 95
a 58 96
a 58 97
a 58 99
a 58 100
a 58 101
a 58 102
a 58 164
a 58 103
a 58 104
a 58 105
a 58 106
a 58 152
a 58 107
a 58 108
a 58 109
a 58 110
a 58 153
a 58 111
a 58 112
a 58 113
a 58 114
a 58 116
a 58 117
a 58 119
a 58 120
a 58 121
a 58 162
a 58 122
a 58 123
a 58 124
a 58 125
a 58 154
a 58 126
a 58 127
a 58 128
a 58 131
a 58 155
a 58 133
a 58 134
a 58 135
a 58 157
a 58 137
a 58 138
a 58 139
a 58 158
a 58 7
a 58 14
a 58 33
a 58 38
a 58 40
a 58 43
a 58 48
a 58 144
a 58 63
a 58 65
a 58 75
a 58 78
a 58 163
a 58 86
a 58 87
a 58 118
a 58 130
a 58 156
a 58 136
a 58 12
a 58 13
a 58 142
a 58 161
a 58 98
a 58 53
a 58 129
a 58 145
a 58 82
a 59 1
a 59 3
a 59 4
a 59 6
a 59 7
a 59 8
a 59 9
a 59 11
a 59 12
a 59 14
a 59 16
a 59 17
a 59 18
a 59 19
a 59 20
a 59 21
a 59 22
a 59 24
a 59 25
a 59 26
a 59 27
a 59 29
a 59 30
a 59 31
a 59 32
a 59 33
a 59 23
a 59 73
a 59 36
a 59 37
a 59 38
a 59 39
a 59 40
a 59 41
a 59 42
a 59 43
a 59 47
a 59 48
a 59 52
a 59 53
a 59 5
a 59 57
a 59 58
a 59 61
a 59 132
a 59 93
a 59 102
a 59 35
a 59 55
a 59 60
a 59 62
a 59 63
a 59 64
a 59 65
a 59 66
a 59 69
a 59 147
a 59 71
a 59 148
a 59 75
a 59 76
a 59 78
a 59 79
a 59 80
a 59 81
a 59 82
a 59 161
a 59 84
a 59 85
a 59 115
a 59 87
a 59 89
a 59 90
a 59 91
a 59 92
a 59 95
a 59 97
a 59 98
a 59 100
a 59 164
a 59 103
a 59 104
a 59 105
a 59 106
a 59 107
a 59 108
a 59 110
a 59 153
a 59 111
a 59 112
a 59 114
a 59 116
a 59 117
a 59 118
a 59 119
a 59 120
a 59 121
a 59 122
a 59 123
a 59 124
a 59 125
a 59 154
a 59 126
a 59 128
a 59 129
a 59 130
a 59 134
a 59 135
a 59 137
a 59 138
a 59 139
a 59 70
a 59 44
a 59 113
a 59 68
a 59 145
a 59 152
a 59 133
a 59 136
a 59 67
a 59 50
a 59 54
a 59 141
a 59 49
a 59 144
a 59 162
a 59 34
a 59 94
a 59 15
a 59 10
a 59 56
a 60 1
a 60 2
a 60 56
a 60 4
a 60 6
a 60 7
a 60 8
a 60 9
a 60 10
a 60 11
a 60 12
a 60 13
a 60 14
a 60 15
a 60 16
a 60 17
a 60 18
a 60 19
a 60 20
a 60 140
a 60 22
a 60 70
a 60 24
a 60 25
a 60 26
a 60 141
a 60 27
a 60 28
a 60 29
a 60 30
a 60 31
a 60 33
a 60 142
a 60 23
a 60 34
a 60 73
a 60 36
a 60 37
a 60 38
a 60 39
a 60 40
a 60 41
a 60 42
a 60 43
a 60 44
a 60 45
a 60 46
a 60 47
a 60 48
a 60 49
a 60 50
a 60 51
a 60 52
a 60 53
a 60 54
a 60 5
a 60 57
a 60 160
a 60 58
a 60 59
a 60 61
a 60 35
a 60 55
a 60 62
a 60 63
a 60 64
a 60 65
a 60 66
a 60 67
a 60 68
a 60 161
a 60 146
a 60 69
a 60 147
a 60 71
a 60 72
a 60 74
a 60 148
a 60 75
a 60 76
a 60 77
a 60 78
a 60 149
a 60 79
a 60 80
a 60 81
a 60 82
a 60 163
a 60 83
a 60 150
a 60 84
a 60 85
a 60 86
a 60 87
a 60 88
a 60 89
a 60 90
a 60 91
a 60 92
a 60 93
a 60 151
a 60 94
a 60 95
a 60 96
a 60 97
a 60 98
a 60 99
a 60 100
a 60 101
a 60 102
a 60 164
a 60 103
a 60 104
a 60 105
a 60 156
a 60 106
a 60 152
a 60 107
a 60 109
a 60 110
a 60 153
a 60 111
a 60 112
a 60 113
a 60 115
a 60 108
a 60 117
a 60 118
a 60 119
a 60 120
a 60 121
a 60 162
a 60 122
a 60 123
a 60 124
a 60 125
a 60 154
a 60 126
a 60 127
a 60 128
a 60 129
a 60 130
a 60 131
a 60 132
a 60 133
a 60 134
a 60 135
a 60 157
a 60 137
a 60 138
a 60 158
a 60 3
a 60 21
a 60 144
a 60 145
a 60 114
a 60 116
a 60 136
a 60 139
a 60 32
a 60 143
a 60 155
a 60 159
a 61 1
a 61 3
a 61 4
a 61 6
a 61 7
a 61 8
a 61 9
a 61 10
a 61 11
a 61 12
a 61 13
a 61 14
a 61 15
a 61 16
a 61 17
a 61 18
a 61 19
a 61 20
a 61 22
a 61 70
a 61 24
a 61 25
a 61 26
a 61 141
a 61 27
a 61 28
a 61 29
a 61 30
a 61 31
a 61 33
a 61 142
a 61 23
a 61 34
a 61 73
a 61 36
a 61 37
a 61 38
a 61 39
a 61 40
a 61 41
a 61 42
a 61 43
a 61 44
a 61 45
a 61 46
a 61 47
a 61 48
a 61 50
a 61 51
a 61 52
a 61 53
a 61 159
a 61 5
a 61 57
a 61 160
a 61 58
a 61 59
a 61 60
a 61 35
a 61 62
a 61 63
a 61 64
a 61 65
a 61 145
a 61 67
a 61 68
a 61 146
a 61 69
a 61 147
a 61 71
a 61 72
a 61 148
a 61 75
a 61 77
a 61 78
a 61 79
a 61 80
a 61 81
a 61 82
a 61 163
a 61 83
a 61 150
a 61 84
a 61 85
a 61 86
a 61 87
a 61 88
a 61 89
a 61 90
a 61 91
a 61 92
a 61 94
a 61 95
a 61 96
a 61 97
a 61 98
a 61 99
a 61 100
a 61 101
a 61 102
a 61 164
a 61 103
a 61 104
a 61 55
a 61 106
a 61 107
a 61 110
a 61 111
a 61 112
a 61 113
a 61 114
a 61 115
a 61 116
a 61 117
a 61 118
a 61 119
a 61 120
a 61 121
a 61 122
a 61 123
a 61 124
a 61 125
a 61 154
a 61 126
a 61 127
a 61 128
a 61 129
a 61 130
a 61 131
a 61 132
a 61 133
a 61 134
a 61 135
a 61 136
a 61 137
a 61 138
a 61 139
a 61 21
a 61 32
a 61 143
a 61 49
a 61 54
a 61 93
a 61 144
a 61 66
a 61 76
a 61 156
a 61 152
a 61 108
a 61 157
a 61 158
a 61 74
a 61 149
a 61 151
a 61 105
a 61 153
a 61 155
a 61 2
a 61 56
a 61 140
a 61 161
a 61 109
a 61 162
a 62 1
a 62 2
a 62 56
a 62 158
a 62 4
a 62 6
a 62 7
a 62 8
a 62 9
a 62 10
a 62 11
a 62 12
a 62 14
a 62 15
a 62 16
a 62 17
a 62 20
a 62 22
a 62 24
a 62 25
a 62 26
a 62 27
a 62 29
a 62 30
a 62 31
a 62 33
a 62 23
a 62 34
a 62 73
a 62 36
a 62 37
a 62 38
a 62 40
a 62 41
a 62 43
a 62 48
a 62 50
a 62 51
a 62 52
a 62 53
a 62 54
a 62 5
a 62 57
a 62 160
a 62 58
a 62 59
a 62 60
a 62 61
a 62 132
a 62 55
a 62 63
a 62 64
a 62 65
a 62 66
a 62 68
a 62 69
a 62 71
a 62 72
a 62 35
a 62 148
a 62 75
a 62 76
a 62 77
a 62 78
a 62 149
a 62 79
a 62 80
a 62 81
a 62 82
a 62 83
a 62 84
a 62 86
a 62 87
a 62 89
a 62 90
a 62 91
a 62 92
a 62 94
a 62 95
a 62 96
a 62 98
a 62 99
a 62 100
a 62 102
a 62 103
a 62 105
a 62 106
a 62 107
a 62 108
a 62 110
a 62 153
a 62 111
a 62 112
a 62 113
a 62 114
a 62 115
a 62 116
a 62 118
a 62 119
a 62 121
a 62 122
a 62 123
a 62 124
a 62 125
a 62 154
a 62 126
a 62 129
a 62 130
a 62 131
a 62 133
a 62 134
a 62 135
a 62 137
a 62 138
a 62 139
a 62 13
a 62 18
a 62 19
a 62 21
a 62 32
a 62 142
a 62 42
a 62 44
a 62 45
a 62 143
a 62 144
a 62 93
a 62 67
a 62 146
a 62 147
a 62 28
a 62 85
a 62 97
a 62 104
a 62 109
a 62 117
a 62 127
a 62 128
a 62 156
a 62 157
a 62 74
a 62 88
a 62 164
a 62 152
a 62 3
a 62 140
a 62 70
a 62 39
a 62 47
a 62 145
a 62 163
a 62 101
a 62 162
a 62 136
a 62 141
a 62 46
a 62 49
a 62 151
a 62 155
a 62 159
a 62 161
a 62 120
a 62 150
a 63 1
a 63 4
a 63 6
a 63 7
a 63 8
a 63 9
a 63 11
a 63 12
a 63 14
a 63 16
a 63 17
a 63 19
a 63 20
a 63 22
a 63 25
a 63 26
a 63 29
a 63 30
a 63 32
a 63 33
a 63 23
a 63 34
a 63 73
a 63 36
a 63 37
a 63 38
a 63 39
a 63 40
a 63 41
a 63 43
a 63 46
a 63 48
a 63 50
a 63 51
a 63 52
a 63 53
a 63 5
a 63 57
a 63 160
a 63 59
a 63 60
a 63 61
a 63 62
a 63 132
a 63 93
a 63 35
a 63 55
a 63 64
a 63 65
a 63 66
a 63 68
a 63 71
a 63 74
a 63 148
a 63 75
a 63 78
a 63 79
a 63 80
a 63 81
a 63 82
a 63 83
a 63 84
a 63 115
a 63 87
a 63 89
a 63 90
a 63 92
a 63 151
a 63 94
a 63 98
a 63 100
a 63 102
a 63 103
a 63 106
a 63 107
a 63 108
a 63 110
a 63 153
a 63 111
a 63 112
a 63 114
a 63 86
a 63 116
a 63 117
a 63 118
a 63 121
a 63 122
a 63 123
a 63 124
a 63 125
a 63 126
a 63 127
a 63 128
a 63 129
a 63 130
a 63 133
a 63 134
a 63 135
a 63 136
a 63 137
a 63 138
a 63 139
a 63 15
a 63 18
a 63 21
a 63 70
a 63 24
a 63 31
a 63 42
a 63 44
a 63 47
a 63 49
a 63 54
a 63 56
a 63 58
a 63 144
a 63 145
a 63 76
a 63 77
a 63 163
a 63 85
a 63 91
a 63 95
a 63 97
a 63 104
a 63 105
a 63 113
a 63 119
a 63 154
a 63 2
a 63 27
a 63 28
a 63 159
a 63 67
a 63 69
a 63 72
a 63 88
a 63 96
a 63 99
a 63 164
a 63 131
a 63 155
a 63 10
a 63 141
a 63 142
a 63 161
a 63 146
a 63 147
a 63 109
a 63 162
a 63 158
a 63 156
a 63 149
a 63 152
a 63 13
a 63 101
a 63 120
a 63 3
a 63 45
a 63 143
a 63 157
a 64 1
a 64 2
a 64 56
a 64 3
a 64 4
a 64 6
a 64 7
a 64 8
a 64 9
a 64 10
a 64 11
a 64 12
a 64 13
a 64 14
a 64 15
a 64 16
a 64 17
a 64 18
a 64 19
a 64 20
a 64 21
a 64 22
a 64 70
a 64 24
a 64 25
a 64 26
a 64 141
a 64 27
a 64 28
a 64 29
a 64 30
a 64 31
a 64 32
a 64 33
a 64 142
a 64 23
a 64 34
a 64 73
a 64 36
a 64 37
a 64 38
a 64 39
a 64 40
a 64 41
a 64 42
a 64 43
a 64 44
a 64 45
a 64 143
a 64 46
a 64 47
a 64 48
a 64 49
a 64 50
a 64 51
a 64 52
a 64 53
a 64 54
a 64 159
a 64 5
a 64 57
a 64 160
a 64 58
a 64 59
a 64 60
a 64 61
a 64 62
a 64 63
a 64 77
a 64 65
a 64 66
a 64 145
a 64 67
a 64 68
a 64 161
a 64 146
a 64 69
a 64 147
a 64 71
a 64 72
a 64 35
a 64 74
a 64 148
a 64 75
a 64 76
a 64 78
a 64 149
a 64 79
a 64 80
a 64 81
a 64 82
a 64 163
a 64 83
a 64 150
a 64 84
a 64 85
a 64 86
a 64 87
a 64 88
a 64 89
a 64 90
a 64 91
a 64 92
a 64 93
a 64 151
a 64 94
a 64 95
a 64 96
a 64 97
a 64 98
a 64 99
a 64 100
a 64 101
a 64 102
a 64 164
a 64 103
a 64 104
a 64 105
a 64 55
a 64 156
a 64 106
a 64 152
a 64 107
a 64 108
a 64 110
a 64 153
a 64 111
a 64 112
a 64 113
a 64 114
a 64 115
a 64 116
a 64 117
a 64 118
a 64 119
a 64 120
a 64 121
a 64 162
a 64 122
a 64 123
a 64 124
a 64 125
a 64 154
a 64 126
a 64 127
a 64 128
a 64 129
a 64 130
a 64 131
a 64 155
a 64 132
a 64 133
a 64 134
a 64 135
a 64 136
a 64 137
a 64 138
a 64 139
a 64 144
a 64 157
a 64 140
a 64 158
a 64 109
a 65 1
a 65 2
a 65 3
a 65 6
a 65 7
a 65 8
a 65 9
a 65 10
a 65 11
a 65 12
a 65 14
a 65 15
a 65 16
a 65 17
a 65 18
a 65 19
a 65 20
a 65 140
a 65 22
a 65 70
a 65 24
a 65 25
a 65 26
a 65 141
a 65 27
a 65 28
a 65 29
a 65 30
a 65 31
a 65 32
a 65 33
a 65 142
a 65 23
a 65 34
a 65 73
a 65 36
a 65 37
a 65 38
a 65 39
a 65 40
a 65 41
a 65 42
a 65 43
a 65 46
a 65 47
a 65 48
a 65 50
a 65 51
a 65 52
a 65 53
a 65 54
a 65 5
a 65 57
a 65 59
a 65 60
a 65 61
a 65 62
a 65 63
a 65 64
a 65 35
a 65 55
a 65 66
a 65 145
a 65 67
a 65 146
a 65 69
a 65 147
a 65 71
a 65 148
a 65 75
a 65 76
a 65 77
a 65 78
a 65 149
a 65 79
a 65 80
a 65 81
a 65 82
a 65 83
a 65 150
a 65 84
a 65 85
a 65 115
a 65 87
a 65 88
a 65 89
a 65 90
a 65 91
a 65 92
a 65 93
a 65 151
a 65 94
a 65 95
a 65 96
a 65 97
a 65 98
a 65 99
a 65 100
a 65 101
a 65 102
a 65 164
a 65 103
a 65 104
a 65 105
a 65 156
a 65 106
a 65 152
a 65 107
a 65 108
a 65 109
a 65 110
a 65 153
a 65 111
a 65 112
a 65 113
a 65 114
a 65 116
a 65 117
a 65 118
a 65 119
a 65 120
a 65 121
a 65 162
a 65 122
a 65 123
a 65 124
a 65 125
a 65 154
a 65 126
a 65 127
a 65 129
a 65 130
a 65 155
a 65 132
a 65 133
a 65 134
a 65 135
a 65 136
a 65 157
a 65 137
a 65 138
a 65 139
a 65 158
a 65 4
a 65 13
a 65 21
a 65 44
a 65 45
a 65 143
a 65 49
a 65 159
a 65 56
a 65 58
a 65 144
a 65 68
a 65 72
a 65 74
a 65 163
a 65 86
a 65 128
a 65 131
a 65 160
a 65 161
a 66 1
a 66 2
a 66 56
a 66 158
a 66 3
a 66 4
a 66 6
a 66 7
a 66 9
a 66 10
a 66 12
a 66 13
a 66 14
a 66 15
a 66 16
a 66 18
a 66 19
a 66 20
a 66 21
a 66 140
a 66 22
a 66 70
a 66 24
a 66 25
a 66 26
a 66 141
a 66 27
a 66 28
a 66 29
a 66 30
a 66 31
a 66 32
a 66 33
a 66 142
a 66 23
a 66 34
a 66 73
a 66 37
a 66 39
a 66 41
a 66 42
a 66 43
a 66 44
a 66 45
a 66 143
a 66 46
a 66 47
a 66 48
a 66 49
a 66 50
a 66 51
a 66 52
a 66 53
a 66 54
a 66 159
a 66 5
a 66 57
a 66 160
a 66 58
a 66 59
a 66 60
a 66 144
a 66 62
a 66 63
a 66 64
a 66 65
a 66 35
a 66 55
a 66 67
a 66 68
a 66 163
a 66 146
a 66 69
a 66 147
a 66 72
a 66 74
a 66 148
a 66 75
a 66 76
a 66 77
a 66 149
a 66 79
a 66 161
a 66 83
a 66 150
a 66 84
a 66 85
a 66 86
a 66 87
a 66 88
a 66 89
a 66 90
a 66 91
a 66 92
a 66 93
a 66 151
a 66 94
a 66 95
a 66 96
a 66 97
a 66 99
a 66 100
a 66 101
a 66 102
a 66 164
a 66 104
a 66 105
a 66 106
a 66 152
a 66 107
a 66 108
a 66 109
a 66 110
a 66 153
a 66 111
a 66 112
a 66 113
a 66 116
a 66 117
a 66 119
a 66 120
a 66 121
a 66 162
a 66 122
a 66 123
a 66 124
a 66 125
a 66 154
a 66 126
a 66 127
a 66 128
a 66 130
a 66 131
a 66 155
a 66 132
a 66 133
a 66 156
a 66 135
a 66 157
a 66 137
a 66 138
a 66 139
a 66 8
a 66 11
a 66 71
a 66 36
a 66 38
a 66 61
a 66 78
a 66 145
a 66 103
a 66 114
a 66 115
a 66 118
a 66 40
a 66 80
a 66 81
a 66 129
a 66 98
a 66 136
a 66 82
a 66 17
a 67 1
a 67 2
a 67 56
a 67 158
a 67 4
a 67 6
a 67 7
a 67 8
a 67 9
a 67 10
a 67 11
a 67 12
a 67 13
a 67 14
a 67 15
a 67 16
a 67 17
a 67 18
a 67 19
a 67 20
a 67 21
a 67 140
a 67 22
a 67 70
a 67 24
a 67 25
a 67 26
a 67 141
a 67 27
a 67 28
a 67 29
a 67 31
a 67 32
a 67 33
a 67 142
a 67 23
a 67 34
a 67 73
a 67 37
a 67 38
a 67 39
a 67 40
a 67 41
a 67 42
a 67 43
a 67 44
a 67 45
a 67 143
a 67 46
a 67 48
a 67 49
a 67 50
a 67 51
a 67 52
a 67 54
a 67 159
a 67 5
a 67 57
a 67 160
a 67 58
a 67 60
a 67 61
a 67 64
a 67 65
a 67 66
a 67 68
a 67 146
a 67 69
a 67 147
a 67 72
a 67 35
a 67 74
a 67 75
a 67 76
a 67 77
a 67 78
a 67 149
a 67 79
a 67 80
a 67 81
a 67 83
a 67 150
a 67 84
a 67 85
a 67 86
a 67 87
a 67 88
a 67 89
a 67 90
a 67 91
a 67 92
a 67 93
a 67 151
a 67 94
a 67 95
a 67 96
a 67 97
a 67 98
a 67 99
a 67 100
a 67 101
a 67 102
a 67 164
a 67 103
a 67 55
a 67 106
a 67 152
a 67 107
a 67 108
a 67 109
a 67 110
a 67 153
a 67 111
a 67 112
a 67 113
a 67 114
a 67 115
a 67 116
a 67 117
a 67 118
a 67 119
a 67 120
a 67 121
a 67 162
a 67 122
a 67 123
a 67 124
a 67 154
a 67 126
a 67 127
a 67 131
a 67 132
a 67 133
a 67 135
a 67 136
a 67 157
a 67 137
a 67 138
a 67 139
a 67 3
a 67 30
a 67 36
a 67 47
a 67 144
a 67 62
a 67 145
a 67 148
a 67 163
a 67 104
a 67 105
a 67 125
a 67 130
a 67 156
a 67 59
a 67 63
a 67 71
a 67 128
a 67 155
a 67 134
a 67 53
a 67 161
a 67 129
a 67 82
a 68 1
a 68 2
a 68 56
a 68 158
a 68 3
a 68 4
a 68 6
a 68 7
a 68 8
a 68 9
a 68 10
a 68 11
a 68 12
a 68 13
a 68 15
a 68 16
a 68 18
a 68 19
a 68 20
a 68 21
a 68 140
a 68 22
a 68 70
a 68 24
a 68 25
a 68 26
a 68 141
a 68 27
a 68 28
a 68 29
a 68 30
a 68 31
a 68 32
a 68 33
a 68 142
a 68 34
a 68 73
a 68 36
a 68 37
a 68 38
a 68 39
a 68 40
a 68 41
a 68 42
a 68 43
a 68 44
a 68 45
a 68 143
a 68 46
a 68 47
a 68 48
a 68 49
a 68 50
a 68 51
a 68 52
a 68 54
a 68 159
a 68 5
a 68 57
a 68 160
a 68 58
a 68 60
a 68 61
a 68 144
a 68 62
a 68 63
a 68 64
a 68 66
a 68 67
a 68 161
a 68 146
a 68 69
a 68 147
a 68 72
a 68 35
a 68 74
a 68 148
a 68 75
a 68 76
a 68 77
a 68 78
a 68 149
a 68 79
a 68 80
a 68 81
a 68 163
a 68 83
a 68 150
a 68 84
a 68 85
a 68 86
a 68 87
a 68 88
a 68 89
a 68 90
a 68 91
a 68 92
a 68 93
a 68 151
a 68 94
a 68 95
a 68 96
a 68 97
a 68 98
a 68 99
a 68 100
a 68 101
a 68 102
a 68 164
a 68 103
a 68 104
a 68 105
a 68 55
a 68 106
a 68 152
a 68 107
a 68 108
a 68 110
a 68 153
a 68 111
a 68 112
a 68 113
a 68 114
a 68 115
a 68 116
a 68 117
a 68 118
a 68 119
a 68 120
a 68 121
a 68 162
a 68 122
a 68 123
a 68 124
a 68 125
a 68 154
a 68 126
a 68 127
a 68 128
a 68 131
a 68 155
a 68 132
a 68 133
a 68 156
a 68 135
a 68 136
a 68 157
a 68 138
a 68 139
a 68 14
a 68 23
a 68 59
a 68 65
a 68 109
a 68 137
a 68 17
a 68 53
a 68 71
a 68 130
a 68 145
a 68 129
a 68 134
a 68 82
a 69 1
a 69 2
a 69 56
a 69 158
a 69 3
a 69 4
a 69 6
a 69 7
a 69 8
a 69 9
a 69 10
a 69 11
a 69 12
a 69 13
a 69 14
a 69 15
a 69 16
a 69 17
a 69 18
a 69 19
a 69 20
a 69 21
a 69 140
a 69 22
a 69 70
a 69 24
a 69 25
a 69 26
a 69 141
a 69 27
a 69 28
a 69 30
a 69 31
a 69 32
a 69 33
a 69 142
a 69 23
a 69 34
a 69 73
a 69 36
a 69 37
a 69 38
a 69 39
a 69 40
a 69 41
a 69 42
a 69 44
a 69 45
a 69 46
a 69 47
a 69 48
a 69 49
a 69 50
a 69 51
a 69 52
a 69 54
a 69 159
a 69 5
a 69 57
a 69 160
a 69 58
a 69 59
a 69 60
a 69 61
a 69 144
a 69 62
a 69 64
a 69 65
a 69 66
a 69 67
a 69 68
a 69 161
a 69 146
a 69 147
a 69 71
a 69 72
a 69 35
a 69 74
a 69 148
a 69 75
a 69 76
a 69 77
a 69 78
a 69 149
a 69 79
a 69 80
a 69 81
a 69 163
a 69 83
a 69 150
a 69 84
a 69 85
a 69 86
a 69 87
a 69 88
a 69 89
a 69 90
a 69 91
a 69 92
a 69 93
a 69 151
a 69 94
a 69 95
a 69 96
a 69 97
a 69 99
a 69 100
a 69 101
a 69 164
a 69 103
a 69 104
a 69 105
a 69 55
a 69 106
a 69 152
a 69 107
a 69 108
a 69 110
a 69 153
a 69 111
a 69 112
a 69 113
a 69 115
a 69 116
a 69 117
a 69 118
a 69 119
a 69 120
a 69 121
a 69 162
a 69 122
a 69 123
a 69 125
a 69 154
a 69 126
a 69 127
a 69 128
a 69 130
a 69 131
a 69 155
a 69 132
a 69 133
a 69 156
a 69 135
a 69 157
a 69 137
a 69 138
a 69 139
a 69 29
a 69 43
a 69 143
a 69 53
a 69 145
a 69 98
a 69 102
a 69 109
a 69 124
a 69 63
a 69 114
a 69 134
a 69 129
a 69 136
a 69 82
a 70 1
a 70 2
a 70 56
a 70 158
a 70 3
a 70 4
a 70 6
a 70 7
a 70 8
a 70 9
a 70 10
a 70 11
a 70 13
a 70 15
a 70 16
a 70 18
a 70 19
a 70 20
a 70 21
a 70 140
a 70 22
a 70 23
a 70 24
a 70 25
a 70 26
a 70 141
a 70 27
a 70 29
a 70 30
a 70 32
a 70 33
a 70 142
a 70 34
a 70 73
a 70 36
a 70 37
a 70 38
a 70 39
a 70 40
a 70 41
a 70 42
a 70 44
a 70 45
a 70 143
a 70 46
a 70 47
a 70 48
a 70 49
a 70 50
a 70 51
a 70 52
a 70 53
a 70 54
a 70 55
a 70 57
a 70 160
a 70 58
a 70 60
a 70 144
a 70 61
a 70 64
a 70 65
a 70 66
a 70 67
a 70 68
a 70 146
a 70 69
a 70 147
a 70 28
a 70 72
a 70 35
a 70 74
a 70 148
a 70 75
a 70 76
a 70 77
a 70 159
a 70 149
a 70 81
a 70 163
a 70 83
a 70 150
a 70 84
a 70 85
a 70 86
a 70 87
a 70 88
a 70 89
a 70 91
a 70 93
a 70 151
a 70 94
a 70 95
a 70 96
a 70 97
a 70 99
a 70 100
a 70 101
a 70 164
a 70 104
a 70 105
a 70 106
a 70 152
a 70 107
a 70 109
a 70 110
a 70 153
a 70 111
a 70 112
a 70 113
a 70 115
a 70 116
a 70 117
a 70 118
a 70 119
a 70 120
a 70 121
a 70 162
a 70 122
a 70 123
a 70 124
a 70 154
a 70 126
a 70 127
a 70 128
a 70 131
a 70 155
a 70 132
a 70 133
a 70 156
a 70 135
a 70 157
a 70 137
a 70 138
a 70 31
a 70 43
a 70 59
a 70 63
a 70 78
a 70 79
a 70 103
a 70 108
a 70 125
a 70 129
a 70 139
a 70 161
a 70 62
a 70 90
a 70 98
a 70 134
a 70 5
a 70 71
a 70 14
a 70 114
a 70 12
a 70 17
a 70 80
a 70 130
a 70 102
a 70 82
a 71 1
a 71 4
a 71 6
a 71 7
a 71 9
a 71 11
a 71 12
a 71 14
a 71 16
a 71 17
a 71 19
a 71 20
a 71 22
a 71 26
a 71 29
a 71 30
a 71 31
a 71 32
a 71 33
a 71 23
a 71 34
a 71 73
a 71 36
a 71 37
a 71 38
a 71 39
a 71 40
a 71 41
a 71 42
a 71 43
a 71 48
a 71 50
a 71 52
a 71 53
a 71 54
a 71 5
a 71 57
a 71 58
a 71 59
a 71 60
a 71 61
a 71 62
a 71 63
a 71 64
a 71 65
a 71 69
a 71 132
a 71 93
a 71 102
a 71 55
a 71 148
a 71 75
a 71 77
a 71 78
a 71 79
a 71 80
a 71 81
a 71 82
a 71 163
a 71 83
a 71 115
a 71 87
a 71 89
a 71 90
a 71 92
a 71 94
a 71 95
a 71 98
a 71 99
a 71 100
a 71 103
a 71 105
a 71 106
a 71 107
a 71 108
a 71 110
a 71 111
a 71 114
a 71 116
a 71 117
a 71 118
a 71 119
a 71 120
a 71 121
a 71 162
a 71 122
a 71 123
a 71 124
a 71 125
a 71 126
a 71 129
a 71 130
a 71 134
a 71 135
a 71 136
a 71 137
a 71 139
a 71 3
a 71 8
a 71 10
a 71 15
a 71 18
a 71 21
a 71 25
a 71 35
a 71 44
a 71 47
a 71 66
a 71 146
a 71 147
a 71 149
a 71 145
a 71 84
a 71 91
a 71 151
a 71 97
a 71 112
a 71 113
a 71 128
a 71 131
a 71 133
a 71 138
a 71 56
a 71 13
a 71 27
a 71 28
a 71 46
a 71 159
a 71 160
a 71 67
a 71 68
a 71 76
a 71 88
a 71 96
a 71 153
a 71 45
a 71 49
a 71 72
a 71 74
a 71 161
a 71 85
a 71 109
a 71 140
a 71 141
a 71 2
a 71 143
a 71 144
a 71 86
a 71 164
a 71 104
a 71 152
a 71 155
a 71 70
a 71 127
a 71 142
a 71 156
a 71 158
a 71 51
a 71 101
a 71 154
a 71 24
a 71 157
a 71 150
a 72 1
a 72 2
a 72 56
a 72 158
a 72 3
a 72 4
a 72 7
a 72 8
a 72 9
a 72 10
a 72 11
a 72 13
a 72 15
a 72 16
a 72 18
a 72 19
a 72 20
a 72 21
a 72 140
a 72 22
a 72 70
a 72 24
a 72 25
a 72 26
a 72 141
a 72 27
a 72 28
a 72 29
a 72 31
a 72 33
a 72 142
a 72 34
a 72 73
a 72 36
a 72 37
a 72 38
a 72 39
a 72 41
a 72 42
a 72 44
a 72 45
a 72 143
a 72 46
a 72 47
a 72 49
a 72 50
a 72 51
a 72 52
a 72 54
a 72 159
a 72 57
a 72 160
a 72 58
a 72 60
a 72 61
a 72 144
a 72 62
a 72 64
a 72 66
a 72 67
a 72 68
a 72 161
a 72 146
a 72 69
a 72 147
a 72 132
a 72 35
a 72 74
a 72 148
a 72 76
a 72 77
a 72 78
a 72 149
a 72 79
a 72 163
a 72 83
a 72 150
a 72 84
a 72 85
a 72 86
a 72 87
a 72 88
a 72 89
a 72 90
a 72 91
a 72 92
a 72 93
a 72 151
a 72 94
a 72 95
a 72 96
a 72 97
a 72 99
a 72 100
a 72 101
a 72 102
a 72 164
a 72 104
a 72 105
a 72 55
a 72 106
a 72 152
a 72 107
a 72 109
a 72 110
a 72 153
a 72 111
a 72 112
a 72 113
a 72 115
a 72 108
a 72 117
a 72 118
a 72 119
a 72 120
a 72 121
a 72 162
a 72 122
a 72 123
a 72 124
a 72 125
a 72 126
a 72 127
a 72 128
a 72 131
a 72 133
a 72 156
a 72 135
a 72 136
a 72 157
a 72 137
a 72 138
a 72 139
a 72 14
a 72 17
a 72 40
a 72 48
a 72 65
a 72 75
a 72 116
a 72 154
a 72 155
a 72 6
a 72 30
a 72 43
a 72 63
a 72 81
a 72 98
a 72 12
a 72 71
a 72 5
a 72 103
a 72 32
a 72 114
a 72 129
a 72 23
a 72 80
a 72 82
a 72 53
a 73 1
a 73 2
a 73 56
a 73 3
a 73 4
a 73 6
a 73 7
a 73 8
a 73 9
a 73 10
a 73 11
a 73 12
a 73 14
a 73 15
a 73 16
a 73 17
a 73 18
a 73 19
a 73 20
a 73 21
a 73 140
a 73 22
a 73 70
a 73 24
a 73 26
a 73 27
a 73 28
a 73 29
a 73 30
a 73 31
a 73 32
a 73 33
a 73 23
a 73 34
a 73 5
a 73 61
a 73 93
a 73 36
a 73 37
a 73 38
a 73 39
a 73 40
a 73 41
a 73 42
a 73 43
a 73 44
a 73 46
a 73 47
a 73 48
a 73 49
a 73 50
a 73 52
a 73 53
a 73 54
a 73 55
a 73 57
a 73 160
a 73 58
a 73 59
a 73 60
a 73 144
a 73 62
a 73 63
a 73 64
a 73 65
a 73 66
a 73 67
a 73 68
a 73 146
a 73 69
a 73 147
a 73 71
a 73 72
a 73 35
a 73 74
a 73 148
a 73 75
a 73 77
a 73 78
a 73 149
a 73 79
a 73 80
a 73 81
a 73 82
a 73 163
a 73 83
a 73 150
a 73 84
a 73 85
a 73 86
a 73 87
a 73 88
a 73 89
a 73 90
a 73 91
a 73 92
a 73 151
a 73 94
a 73 95
a 73 96
a 73 97
a 73 98
a 73 99
a 73 100
a 73 101
a 73 102
a 73 103
a 73 104
a 73 105
a 73 106
a 73 152
a 73 107
a 73 110
a 73 111
a 73 112
a 73 113
a 73 115
a 73 108
a 73 118
a 73 119
a 73 120
a 73 121
a 73 162
a 73 122
a 73 123
a 73 124
a 73 125
a 73 154
a 73 126
a 73 127
a 73 130
a 73 131
a 73 132
a 73 133
a 73 156
a 73 135
a 73 136
a 73 157
a 73 137
a 73 138
a 73 139
a 73 158
a 73 13
a 73 25
a 73 141
a 73 142
a 73 45
a 73 51
a 73 159
a 73 145
a 73 76
a 73 164
a 73 153
a 73 114
a 73 116
a 73 117
a 73 128
a 73 129
a 73 155
a 73 109
a 73 143
a 73 161
a 73 134
a 74 1
a 74 2
a 74 56
a 74 158
a 74 3
a 74 4
a 74 6
a 74 7
a 74 8
a 74 10
a 74 13
a 74 15
a 74 19
a 74 20
a 74 21
a 74 140
a 74 22
a 74 70
a 74 24
a 74 25
a 74 26
a 74 141
a 74 27
a 74 28
a 74 29
a 74 31
a 74 32
a 74 33
a 74 142
a 74 34
a 74 73
a 74 39
a 74 42
a 74 44
a 74 45
a 74 143
a 74 46
a 74 47
a 74 49
a 74 50
a 74 51
a 74 54
a 74 159
a 74 5
a 74 160
a 74 58
a 74 60
a 74 144
a 74 63
a 74 64
a 74 66
a 74 67
a 74 68
a 74 161
a 74 146
a 74 69
a 74 147
a 74 72
a 74 35
a 74 132
a 74 93
a 74 55
a 74 163
a 74 148
a 74 76
a 74 77
a 74 149
a 74 83
a 74 150
a 74 84
a 74 85
a 74 87
a 74 88
a 74 90
a 74 91
a 74 151
a 74 94
a 74 95
a 74 96
a 74 97
a 74 99
a 74 100
a 74 101
a 74 164
a 74 104
a 74 105
a 74 106
a 74 152
a 74 108
a 74 109
a 74 153
a 74 112
a 74 113
a 74 114
a 74 116
a 74 117
a 74 118
a 74 119
a 74 120
a 74 121
a 74 162
a 74 122
a 74 123
a 74 154
a 74 126
a 74 127
a 74 128
a 74 131
a 74 155
a 74 133
a 74 156
a 74 135
a 74 157
a 74 138
a 74 12
a 74 16
a 74 18
a 74 36
a 74 37
a 74 38
a 74 52
a 74 57
a 74 65
a 74 75
a 74 78
a 74 89
a 74 110
a 74 124
a 74 125
a 74 9
a 74 11
a 74 14
a 74 30
a 74 23
a 74 40
a 74 43
a 74 48
a 74 61
a 74 62
a 74 81
a 74 86
a 74 92
a 74 102
a 74 107
a 74 115
a 74 129
a 74 130
a 74 137
a 74 139
a 74 17
a 74 71
a 74 79
a 74 41
a 74 111
a 74 134
a 74 53
a 74 98
a 74 103
a 74 82
a 74 145
a 74 80
a 75 1
a 75 158
a 75 3
a 75 4
a 75 6
a 75 7
a 75 8
a 75 9
a 75 10
a 75 11
a 75 12
a 75 14
a 75 15
a 75 16
a 75 17
a 75 18
a 75 19
a 75 20
a 75 140
a 75 22
a 75 70
a 75 24
a 75 25
a 75 26
a 75 141
a 75 27
a 75 28
a 75 29
a 75 30
a 75 31
a 75 32
a 75 33
a 75 23
a 75 34
a 75 73
a 75 36
a 75 37
a 75 38
a 75 39
a 75 40
a 75 41
a 75 42
a 75 43
a 75 45
a 75 46
a 75 47
a 75 48
a 75 49
a 75 50
a 75 52
a 75 54
a 75 5
a 75 57
a 75 59
a 75 60
a 75 61
a 75 144
a 75 62
a 75 63
a 75 64
a 75 65
a 75 66
a 75 67
a 75 68
a 75 146
a 75 69
a 75 147
a 75 71
a 75 35
a 75 148
a 75 132
a 75 55
a 75 76
a 75 77
a 75 78
a 75 79
a 75 80
a 75 81
a 75 83
a 75 150
a 75 84
a 75 85
a 75 86
a 75 87
a 75 89
a 75 90
a 75 91
a 75 92
a 75 93
a 75 151
a 75 94
a 75 95
a 75 96
a 75 97
a 75 98
a 75 100
a 75 101
a 75 102
a 75 164
a 75 103
a 75 104
a 75 105
a 75 152
a 75 107
a 75 108
a 75 109
a 75 110
a 75 153
a 75 111
a 75 112
a 75 114
a 75 115
a 75 116
a 75 117
a 75 118
a 75 119
a 75 121
a 75 162
a 75 122
a 75 123
a 75 124
a 75 125
a 75 154
a 75 126
a 75 127
a 75 128
a 75 131
a 75 133
a 75 156
a 75 135
a 75 136
a 75 157
a 75 137
a 75 138
a 75 139
a 75 2
a 75 13
a 75 44
a 75 143
a 75 51
a 75 56
a 75 160
a 75 58
a 75 72
a 75 74
a 75 149
a 75 88
a 75 99
a 75 106
a 75 113
a 75 120
a 75 155
a 75 21
a 75 159
a 75 129
a 75 130
a 75 142
a 75 53
a 75 145
a 75 161
a 75 163
a 75 134
a 75 82
a 76 1
a 76 2
a 76 56
a 76 158
a 76 3
a 76 6
a 76 7
a 76 8
a 76 9
a 76 10
a 76 11
a 76 13
a 76 15
a 76 18
a 76 20
a 76 21
a 76 140
a 76 22
a 76 70
a 76 24
a 76 26
a 76 141
a 76 27
a 76 28
a 76 29
a 76 30
a 76 31
a 76 32
a 76 33
a 76 142
a 76 23
a 76 34
a 76 36
a 76 38
a 76 39
a 76 40
a 76 42
a 76 44
a 76 45
a 76 143
a 76 46
a 76 47
a 76 48
a 76 49
a 76 50
a 76 51
a 76 52
a 76 53
a 76 54
a 76 159
a 76 5
a 76 57
a 76 160
a 76 58
a 76 59
a 76 60
a 76 144
a 76 62
a 76 64
a 76 65
a 76 66
a 76 67
a 76 68
a 76 161
a 76 146
a 76 69
a 76 147
a 76 72
a 76 35
a 76 74
a 76 148
a 76 75
a 76 93
a 76 55
a 76 163
a 76 77
a 76 149
a 76 80
a 76 83
a 76 150
a 76 84
a 76 85
a 76 86
a 76 88
a 76 89
a 76 90
a 76 91
a 76 151
a 76 94
a 76 95
a 76 96
a 76 97
a 76 99
a 76 100
a 76 101
a 76 164
a 76 104
a 76 105
a 76 156
a 76 106
a 76 152
a 76 108
a 76 109
a 76 110
a 76 153
a 76 111
a 76 112
a 76 113
a 76 115
a 76 116
a 76 117
a 76 119
a 76 120
a 76 162
a 76 122
a 76 124
a 76 125
a 76 154
a 76 127
a 76 128
a 76 131
a 76 155
a 76 132
a 76 133
a 76 134
a 76 135
a 76 157
a 76 137
a 76 139
a 76 4
a 76 12
a 76 14
a 76 16
a 76 17
a 76 19
a 76 25
a 76 73
a 76 37
a 76 41
a 76 43
a 76 61
a 76 63
a 76 78
a 76 79
a 76 81
a 76 82
a 76 87
a 76 92
a 76 102
a 76 103
a 76 107
a 76 114
a 76 118
a 76 121
a 76 123
a 76 126
a 76 129
a 76 138
a 76 71
a 76 98
a 76 136
a 76 130
a 77 1
a 77 2
a 77 56
a 77 158
a 77 3
a 77 4
a 77 6
a 77 7
a 77 8
a 77 9
a 77 10
a 77 11
a 77 12
a 77 13
a 77 14
a 77 15
a 77 16
a 77 17
a 77 18
a 77 19
a 77 20
a 77 21
a 77 140
a 77 22
a 77 70
a 77 24
a 77 25
a 77 26
a 77 141
a 77 27
a 77 28
a 77 29
a 77 31
a 77 32
a 77 33
a 77 142
a 77 23
a 77 34
a 77 73
a 77 36
a 77 37
a 77 38
a 77 39
a 77 41
a 77 42
a 77 43
a 77 44
a 77 45
a 77 143
a 77 46
a 77 47
a 77 48
a 77 49
a 77 50
a 77 51
a 77 52
a 77 53
a 77 54
a 77 159
a 77 5
a 77 57
a 77 160
a 77 58
a 77 60
a 77 61
a 77 144
a 77 62
a 77 64
a 77 65
a 77 66
a 77 67
a 77 68
a 77 161
a 77 146
a 77 69
a 77 147
a 77 71
a 77 72
a 77 35
a 77 74
a 77 148
a 77 75
a 77 76
a 77 55
a 77 149
a 77 79
a 77 80
a 77 163
a 77 83
a 77 150
a 77 84
a 77 85
a 77 86
a 77 87
a 77 88
a 77 89
a 77 90
a 77 91
a 77 92
a 77 93
a 77 151
a 77 94
a 77 95
a 77 96
a 77 97
a 77 98
a 77 99
a 77 100
a 77 101
a 77 102
a 77 164
a 77 104
a 77 105
a 77 106
a 77 152
a 77 107
a 77 109
a 77 110
a 77 153
a 77 111
a 77 112
a 77 113
a 77 115
a 77 108
a 77 117
a 77 118
a 77 119
a 77 120
a 77 121
a 77 162
a 77 122
a 77 123
a 77 124
a 77 125
a 77 154
a 77 126
a 77 127
a 77 128
a 77 129
a 77 130
a 77 131
a 77 155
a 77 132
a 77 133
a 77 156
a 77 135
a 77 157
a 77 137
a 77 138
a 77 139
a 77 30
a 77 63
a 77 78
a 77 103
a 77 114
a 77 116
a 77 40
a 77 81
a 77 134
a 77 145
a 77 136
a 77 82
a 78 1
a 78 4
a 78 6
a 78 7
a 78 8
a 78 9
a 78 11
a 78 12
a 78 13
a 78 14
a 78 16
a 78 17
a 78 19
a 78 20
a 78 140
a 78 22
a 78 25
a 78 26
a 78 27
a 78 28
a 78 29
a 78 30
a 78 31
a 78 32
a 78 33
a 78 23
a 78 34
a 78 73
a 78 36
a 78 37
a 78 38
a 78 39
a 78 40
a 78 41
a 78 42
a 78 43
a 78 44
a 78 46
a 78 47
a 78 48
a 78 50
a 78 52
a 78 53
a 78 54
a 78 5
a 78 57
a 78 59
a 78 60
a 78 61
a 78 62
a 78 63
a 78 64
a 78 65
a 78 145
a 78 67
a 78 68
a 78 69
a 78 71
a 78 72
a 78 35
a 78 148
a 78 75
a 78 132
a 78 93
a 78 55
a 78 149
a 78 79
a 78 80
a 78 81
a 78 82
a 78 83
a 78 115
a 78 87
a 78 88
a 78 89
a 78 90
a 78 91
a 78 92
a 78 151
a 78 95
a 78 96
a 78 97
a 78 98
a 78 99
a 78 100
a 78 101
a 78 102
a 78 103
a 78 104
a 78 106
a 78 107
a 78 110
a 78 111
a 78 112
a 78 113
a 78 114
a 78 116
a 78 118
a 78 120
a 78 121
a 78 122
a 78 123
a 78 124
a 78 125
a 78 154
a 78 126
a 78 129
a 78 130
a 78 131
a 78 134
a 78 135
a 78 136
a 78 137
a 78 138
a 78 139
a 78 3
a 78 10
a 78 18
a 78 21
a 78 70
a 78 141
a 78 56
a 78 160
a 78 58
a 78 144
a 78 66
a 78 146
a 78 147
a 78 74
a 78 76
a 78 77
a 78 150
a 78 94
a 78 105
a 78 108
a 78 109
a 78 153
a 78 117
a 78 119
a 78 127
a 78 128
a 78 2
a 78 15
a 78 24
a 78 143
a 78 49
a 78 164
a 78 155
a 78 133
a 78 51
a 78 161
a 78 84
a 78 85
a 78 162
a 78 163
a 78 157
a 78 142
a 78 45
a 78 152
a 78 86
a 78 158
a 78 159
a 78 156
a 79 1
a 79 2
a 79 158
a 79 3
a 79 4
a 79 6
a 79 7
a 79 8
a 79 9
a 79 10
a 79 11
a 79 12
a 79 14
a 79 15
a 79 16
a 79 18
a 79 19
a 79 22
a 79 24
a 79 25
a 79 26
a 79 141
a 79 27
a 79 28
a 79 29
a 79 30
a 79 31
a 79 32
a 79 33
a 79 23
a 79 34
a 79 73
a 79 36
a 79 37
a 79 38
a 79 39
a 79 40
a 79 41
a 79 42
a 79 43
a 79 45
a 79 48
a 79 50
a 79 51
a 79 52
a 79 53
a 79 54
a 79 159
a 79 5
a 79 57
a 79 58
a 79 59
a 79 60
a 79 61
a 79 144
a 79 62
a 79 63
a 79 64
a 79 65
a 79 66
a 79 67
a 79 68
a 79 161
a 79 146
a 79 69
a 79 147
a 79 71
a 79 72
a 79 148
a 79 75
a 79 77
a 79 78
a 79 149
a 79 80
a 79 81
a 79 82
a 79 150
a 79 84
a 79 86
a 79 87
a 79 88
a 79 89
a 79 90
a 79 91
a 79 92
a 79 93
a 79 94
a 79 95
a 79 97
a 79 98
a 79 100
a 79 101
a 79 102
a 79 103
a 79 104
a 79 105
a 79 55
a 79 106
a 79 152
a 79 107
a 79 108
a 79 110
a 79 153
a 79 111
a 79 112
a 79 113
a 79 114
a 79 115
a 79 116
a 79 117
a 79 118
a 79 119
a 79 120
a 79 121
a 79 122
a 79 123
a 79 124
a 79 125
a 79 154
a 79 126
a 79 127
a 79 129
a 79 130
a 79 131
a 79 155
a 79 132
a 79 133
a 79 134
a 79 135
a 79 137
a 79 138
a 79 139
a 79 17
a 79 20
a 79 70
a 79 44
a 79 49
a 79 145
a 79 35
a 79 76
a 79 163
a 79 83
a 79 85
a 79 151
a 79 96
a 79 99
a 79 109
a 79 157
a 79 56
a 79 13
a 79 47
a 79 164
a 79 128
a 79 140
a 79 21
a 79 46
a 79 74
a 79 156
a 79 162
a 79 136
a 79 160
a 79 142
a 79 143
a 80 1
a 80 4
a 80 6
a 80 7
a 80 8
a 80 9
a 80 11
a 80 12
a 80 13
a 80 14
a 80 16
a 80 17
a 80 18
a 80 19
a 80 20
a 80 22
a 80 24
a 80 25
a 80 26
a 80 27
a 80 29
a 80 30
a 80 31
a 80 32
a 80 33
a 80 142
a 80 23
a 80 34
a 80 73
a 80 36
a 80 37
a 80 38
a 80 40
a 80 41
a 80 43
a 80 44
a 80 46
a 80 48
a 80 50
a 80 52
a 80 53
a 80 54
a 80 5
a 80 57
a 80 58
a 80 59
a 80 60
a 80 61
a 80 62
a 80 63
a 80 64
a 80 65
a 80 145
a 80 67
a 80 68
a 80 69
a 80 147
a 80 71
a 80 35
a 80 75
a 80 76
a 80 77
a 80 78
a 80 149
a 80 79
a 80 132
a 80 93
a 80 81
a 80 82
a 80 83
a 80 84
a 80 85
a 80 86
a 80 87
a 80 88
a 80 89
a 80 90
a 80 91
a 80 92
a 80 94
a 80 95
a 80 96
a 80 97
a 80 98
a 80 100
a 80 101
a 80 102
a 80 103
a 80 104
a 80 105
a 80 106
a 80 107
a 80 108
a 80 110
a 80 153
a 80 111
a 80 112
a 80 113
a 80 114
a 80 115
a 80 116
a 80 117
a 80 118
a 80 119
a 80 121
a 80 122
a 80 123
a 80 124
a 80 125
a 80 154
a 80 126
a 80 129
a 80 130
a 80 131
a 80 155
a 80 133
a 80 134
a 80 135
a 80 136
a 80 137
a 80 138
a 80 139
a 80 10
a 80 21
a 80 56
a 80 160
a 80 146
a 80 28
a 80 128
a 80 15
a 80 140
a 80 42
a 80 55
a 80 99
a 80 152
a 80 141
a 80 66
a 80 161
a 80 148
a 80 162
a 80 51
a 80 109
a 80 127
a 80 47
a 80 151
a 80 164
a 80 39
a 80 120
a 80 3
a 80 45
a 80 70
a 80 144
a 80 49
a 80 159
a 80 158
a 80 143
a 80 72
a 80 2
a 80 74
a 80 156
a 80 163
a 80 150
a 81 1
a 81 2
a 81 4
a 81 6
a 81 8
a 81 9
a 81 11
a 81 12
a 81 13
a 81 14
a 81 15
a 81 16
a 81 17
a 81 18
a 81 19
a 81 20
a 81 22
a 81 70
a 81 24
a 81 25
a 81 26
a 81 27
a 81 29
a 81 30
a 81 31
a 81 33
a 81 23
a 81 34
a 81 73
a 81 36
a 81 37
a 81 38
a 81 39
a 81 40
a 81 41
a 81 42
a 81 43
a 81 44
a 81 45
a 81 48
a 81 49
a 81 50
a 81 52
a 81 53
a 81 54
a 81 159
a 81 5
a 81 57
a 81 58
a 81 59
a 81 60
a 81 61
a 81 62
a 81 63
a 81 64
a 81 65
a 81 67
a 81 68
a 81 69
a 81 71
a 81 35
a 81 75
a 81 78
a 81 79
a 81 80
a 81 132
a 81 93
a 81 82
a 81 83
a 81 84
a 81 115
a 81 89
a 81 90
a 81 91
a 81 92
a 81 95
a 81 96
a 81 98
a 81 99
a 81 100
a 81 101
a 81 102
a 81 164
a 81 103
a 81 55
a 81 106
a 81 107
a 81 109
a 81 110
a 81 153
a 81 111
a 81 112
a 81 113
a 81 114
a 81 108
a 81 118
a 81 121
a 81 122
a 81 123
a 81 124
a 81 125
a 81 126
a 81 129
a 81 130
a 81 131
a 81 133
a 81 134
a 81 135
a 81 136
a 81 137
a 81 138
a 81 139
a 81 7
a 81 21
a 81 32
a 81 142
a 81 47
a 81 145
a 81 28
a 81 148
a 81 76
a 81 85
a 81 86
a 81 87
a 81 88
a 81 97
a 81 116
a 81 154
a 81 128
a 81 56
a 81 10
a 81 140
a 81 51
a 81 160
a 81 144
a 81 146
a 81 72
a 81 74
a 81 77
a 81 94
a 81 141
a 81 46
a 81 66
a 81 147
a 81 104
a 81 105
a 81 117
a 81 119
a 81 162
a 81 127
a 81 157
a 81 163
a 81 151
a 81 156
a 81 120
a 81 155
a 81 143
a 81 152
a 81 3
a 81 149
a 81 158
a 81 161
a 81 150
a 82 1
a 82 4
a 82 6
a 82 11
a 82 12
a 82 14
a 82 16
a 82 17
a 82 20
a 82 22
a 82 25
a 82 26
a 82 29
a 82 30
a 82 31
a 82 33
a 82 23
a 82 34
a 82 73
a 82 36
a 82 37
a 82 38
a 82 40
a 82 41
a 82 43
a 82 44
a 82 48
a 82 52
a 82 53
a 82 5
a 82 57
a 82 59
a 82 60
a 82 61
a 82 62
a 82 63
a 82 64
a 82 65
a 82 145
a 82 71
a 82 148
a 82 78
a 82 79
a 82 80
a 82 81
a 82 103
a 82 114
a 82 137
a 82 118
a 82 121
a 82 122
a 82 123
a 82 125
a 82 83
a 82 139
a 82 116
a 82 115
a 82 87
a 82 88
a 82 124
a 82 89
a 82 90
a 82 92
a 82 129
a 82 100
a 82 126
a 82 132
a 82 102
a 82 133
a 82 110
a 82 136
a 82 134
a 82 138
a 82 107
a 82 130
a 82 98
a 82 7
a 82 9
a 82 32
a 82 76
a 82 117
a 82 154
a 82 96
a 82 97
a 82 111
a 82 35
a 82 135
a 82 8
a 82 10
a 82 13
a 82 15
a 82 19
a 82 24
a 82 93
a 82 3
a 82 49
a 82 58
a 82 66
a 82 67
a 82 68
a 82 161
a 82 69
a 82 75
a 82 77
a 82 84
a 82 85
a 82 86
a 82 91
a 82 151
a 82 94
a 82 104
a 82 109
a 82 113
a 82 108
a 82 119
a 82 156
a 82 157
a 82 27
a 82 39
a 82 45
a 82 50
a 82 54
a 82 56
a 82 72
a 82 149
a 82 164
a 82 131
a 82 18
a 82 144
a 82 70
a 82 162
a 82 95
a 82 141
a 82 140
a 82 142
a 82 143
a 82 163
a 82 101
a 82 152
a 82 120
a 82 127
a 82 128
a 82 155
a 82 47
a 82 74
a 82 105
a 82 146
a 82 99
a 82 153
a 82 2
a 82 158
a 82 46
a 82 51
a 82 159
a 82 150
a 82 21
a 83 1
a 83 2
a 83 56
a 83 158
a 83 3
a 83 4
a 83 6
a 83 7
a 83 8
a 83 9
a 83 10
a 83 11
a 83 12
a 83 15
a 83 16
a 83 17
a 83 18
a 83 19
a 83 20
a 83 21
a 83 140
a 83 22
a 83 70
a 83 24
a 83 25
a 83 26
a 83 141
a 83 27
a 83 28
a 83 29
a 83 30
a 83 31
a 83 32
a 83 33
a 83 23
a 83 34
a 83 73
a 83 36
a 83 37
a 83 38
a 83 39
a 83 40
a 83 41
a 83 42
a 83 43
a 83 44
a 83 45
a 83 143
a 83 47
a 83 48
a 83 49
a 83 50
a 83 51
a 83 52
a 83 54
a 83 159
a 83 57
a 83 160
a 83 58
a 83 60
a 83 61
a 83 144
a 83 62
a 83 63
a 83 64
a 83 65
a 83 66
a 83 67
a 83 68
a 83 161
a 83 146
a 83 69
a 83 147
a 83 71
a 83 72
a 83 35
a 83 74
a 83 75
a 83 76
a 83 77
a 83 78
a 83 149
a 83 80
a 83 81
a 83 82
a 83 163
a 83 84
a 83 85
a 83 86
a 83 87
a 83 88
a 83 89
a 83 90
a 83 91
a 83 92
a 83 93
a 83 151
a 83 94
a 83 95
a 83 96
a 83 97
a 83 98
a 83 99
a 83 100
a 83 101
a 83 102
a 83 164
a 83 103
a 83 104
a 83 105
a 83 55
a 83 156
a 83 106
a 83 152
a 83 107
a 83 109
a 83 110
a 83 153
a 83 111
a 83 112
a 83 113
a 83 115
a 83 108
a 83 117
a 83 118
a 83 119
a 83 120
a 83 121
a 83 162
a 83 122
a 83 123
a 83 124
a 83 125
a 83 154
a 83 126
a 83 127
a 83 128
a 83 129
a 83 131
a 83 155
a 83 133
a 83 134
a 83 135
a 83 157
a 83 138
a 83 139
a 83 5
a 83 13
a 83 142
a 83 145
a 83 148
a 83 79
a 83 114
a 83 116
a 83 132
a 83 137
a 83 14
a 83 46
a 83 150
a 83 130
a 83 136
a 83 53
a 84 1
a 84 2
a 84 56
a 84 158
a 84 3
a 84 4
a 84 6
a 84 7
a 84 8
a 84 9
a 84 10
a 84 11
a 84 12
a 84 13
a 84 14
a 84 15
a 84 16
a 84 17
a 84 18
a 84 19
a 84 20
a 84 21
a 84 140
a 84 22
a 84 70
a 84 24
a 84 25
a 84 26
a 84 27
a 84 28
a 84 29
a 84 30
a 84 31
a 84 33
a 84 142
a 84 34
a 84 73
a 84 36
a 84 37
a 84 38
a 84 39
a 84 40
a 84 41
a 84 43
a 84 44
a 84 45
a 84 143
a 84 47
a 84 48
a 84 49
a 84 50
a 84 51
a 84 52
a 84 54
a 84 159
a 84 5
a 84 57
a 84 160
a 84 58
a 84 59
a 84 60
a 84 61
a 84 62
a 84 63
a 84 64
a 84 65
a 84 66
a 84 67
a 84 68
a 84 161
a 84 146
a 84 69
a 84 147
a 84 72
a 84 35
a 84 74
a 84 148
a 84 75
a 84 76
a 84 77
a 84 149
a 84 79
a 84 80
a 84 81
a 84 163
a 84 83
a 84 150
a 84 55
a 84 85
a 84 86
a 84 87
a 84 88
a 84 89
a 84 90
a 84 91
a 84 92
a 84 93
a 84 151
a 84 94
a 84 95
a 84 96
a 84 97
a 84 99
a 84 100
a 84 101
a 84 102
a 84 164
a 84 103
a 84 104
a 84 105
a 84 106
a 84 152
a 84 107
a 84 108
a 84 109
a 84 110
a 84 153
a 84 111
a 84 112
a 84 113
a 84 115
a 84 116
a 84 117
a 84 118
a 84 119
a 84 120
a 84 121
a 84 122
a 84 123
a 84 124
a 84 125
a 84 126
a 84 127
a 84 128
a 84 129
a 84 131
a 84 132
a 84 133
a 84 156
a 84 135
a 84 157
a 84 137
a 84 138
a 84 139
a 84 141
a 84 71
a 84 32
a 84 42
a 84 46
a 84 53
a 84 144
a 84 98
a 84 162
a 84 154
a 84 155
a 84 78
a 84 114
a 84 134
a 84 130
a 84 23
a 84 82
a 84 145
a 85 1
a 85 2
a 85 56
a 85 158
a 85 3
a 85 6
a 85 7
a 85 8
a 85 9
a 85 10
a 85 11
a 85 12
a 85 13
a 85 15
a 85 16
a 85 17
a 85 18
a 85 19
a 85 20
a 85 21
a 85 140
a 85 22
a 85 70
a 85 24
a 85 25
a 85 26
a 85 141
a 85 27
a 85 28
a 85 29
a 85 30
a 85 31
a 85 32
a 85 33
a 85 142
a 85 34
a 85 73
a 85 36
a 85 37
a 85 38
a 85 39
a 85 41
a 85 42
a 85 43
a 85 44
a 85 45
a 85 143
a 85 46
a 85 47
a 85 48
a 85 49
a 85 51
a 85 52
a 85 54
a 85 159
a 85 57
a 85 160
a 85 58
a 85 59
a 85 60
a 85 61
a 85 144
a 85 64
a 85 65
a 85 66
a 85 67
a 85 68
a 85 161
a 85 146
a 85 69
a 85 147
a 85 72
a 85 35
a 85 74
a 85 148
a 85 75
a 85 76
a 85 77
a 85 149
a 85 80
a 85 163
a 85 83
a 85 150
a 85 84
a 85 55
a 85 86
a 85 87
a 85 88
a 85 89
a 85 90
a 85 91
a 85 92
a 85 93
a 85 151
a 85 94
a 85 95
a 85 96
a 85 97
a 85 99
a 85 101
a 85 102
a 85 164
a 85 104
a 85 105
a 85 106
a 85 107
a 85 108
a 85 109
a 85 110
a 85 153
a 85 111
a 85 112
a 85 113
a 85 115
a 85 116
a 85 117
a 85 118
a 85 119
a 85 120
a 85 121
a 85 162
a 85 122
a 85 123
a 85 124
a 85 154
a 85 126
a 85 127
a 85 128
a 85 129
a 85 131
a 85 155
a 85 132
a 85 133
a 85 156
a 85 135
a 85 157
a 85 137
a 85 138
a 85 139
a 85 4
a 85 14
a 85 23
a 85 40
a 85 50
a 85 62
a 85 63
a 85 145
a 85 79
a 85 81
a 85 100
a 85 103
a 85 152
a 85 125
a 85 98
a 85 130
a 85 71
a 85 78
a 85 134
a 85 5
a 85 53
a 85 114
a 85 82
a 86 1
a 86 2
a 86 56
a 86 158
a 86 3
a 86 4
a 86 6
a 86 7
a 86 8
a 86 9
a 86 10
a 86 11
a 86 12
a 86 13
a 86 14
a 86 15
a 86 18
a 86 19
a 86 20
a 86 21
a 86 140
a 86 22
a 86 70
a 86 24
a 86 25
a 86 26
a 86 141
a 86 27
a 86 28
a 86 29
a 86 31
a 86 32
a 86 33
a 86 142
a 86 34
a 86 73
a 86 36
a 86 37
a 86 38
a 86 39
a 86 41
a 86 42
a 86 43
a 86 44
a 86 45
a 86 143
a 86 46
a 86 47
a 86 48
a 86 49
a 86 50
a 86 51
a 86 52
a 86 54
a 86 159
a 86 57
a 86 160
a 86 60
a 86 61
a 86 144
a 86 62
a 86 63
a 86 64
a 86 66
a 86 67
a 86 68
a 86 146
a 86 69
a 86 147
a 86 72
a 86 35
a 86 148
a 86 75
a 86 76
a 86 77
a 86 149
a 86 79
a 86 80
a 86 163
a 86 83
a 86 150
a 86 84
a 86 85
a 86 132
a 86 55
a 86 115
a 86 87
a 86 88
a 86 89
a 86 90
a 86 91
a 86 92
a 86 93
a 86 151
a 86 94
a 86 95
a 86 96
a 86 97
a 86 99
a 86 100
a 86 102
a 86 164
a 86 104
a 86 105
a 86 106
a 86 152
a 86 107
a 86 108
a 86 153
a 86 111
a 86 112
a 86 113
a 86 114
a 86 116
a 86 117
a 86 118
a 86 119
a 86 120
a 86 121
a 86 162
a 86 122
a 86 123
a 86 124
a 86 154
a 86 126
a 86 127
a 86 128
a 86 131
a 86 133
a 86 156
a 86 135
a 86 157
a 86 138
a 86 139
a 86 5
a 86 17
a 86 40
a 86 58
a 86 65
a 86 81
a 86 110
a 86 125
a 86 137
a 86 16
a 86 30
a 86 74
a 86 98
a 86 101
a 86 103
a 86 109
a 86 129
a 86 130
a 86 161
a 86 155
a 86 71
a 86 23
a 86 78
a 86 134
a 86 53
a 86 82
a 87 1
a 87 2
a 87 56
a 87 4
a 87 6
a 87 7
a 87 8
a 87 9
a 87 10
a 87 11
a 87 12
a 87 14
a 87 15
a 87 16
a 87 17
a 87 18
a 87 19
a 87 20
a 87 22
a 87 70
a 87 24
a 87 25
a 87 26
a 87 27
a 87 28
a 87 29
a 87 30
a 87 31
a 87 32
a 87 33
a 87 142
a 87 34
a 87 73
a 87 36
a 87 37
a 87 38
a 87 39
a 87 40
a 87 41
a 87 42
a 87 43
a 87 44
a 87 45
a 87 46
a 87 47
a 87 48
a 87 49
a 87 50
a 87 51
a 87 52
a 87 53
a 87 54
a 87 5
a 87 57
a 87 160
a 87 59
a 87 60
a 87 61
a 87 62
a 87 63
a 87 64
a 87 65
a 87 66
a 87 67
a 87 68
a 87 146
a 87 69
a 87 147
a 87 71
a 87 72
a 87 35
a 87 74
a 87 75
a 87 77
a 87 78
a 87 149
a 87 79
a 87 80
a 87 82
a 87 83
a 87 150
a 87 84
a 87 85
a 87 86
a 87 55
a 87 88
a 87 89
a 87 90
a 87 91
a 87 92
a 87 93
a 87 151
a 87 94
a 87 95
a 87 96
a 87 97
a 87 99
a 87 100
a 87 101
a 87 102
a 87 103
a 87 104
a 87 105
a 87 106
a 87 152
a 87 107
a 87 109
a 87 110
a 87 153
a 87 111
a 87 112
a 87 113
a 87 115
a 87 116
a 87 117
a 87 118
a 87 119
a 87 120
a 87 121
a 87 162
a 87 122
a 87 123
a 87 124
a 87 125
a 87 154
a 87 126
a 87 127
a 87 129
a 87 130
a 87 131
a 87 132
a 87 133
a 87 135
a 87 136
a 87 137
a 87 138
a 87 139
a 87 13
a 87 21
a 87 141
a 87 23
a 87 58
a 87 144
a 87 145
a 87 148
a 87 76
a 87 81
a 87 98
a 87 164
a 87 108
a 87 128
a 87 157
a 87 158
a 87 3
a 87 143
a 87 159
a 87 140
a 87 114
a 87 134
a 87 163
a 87 155
a 87 156
a 87 161
a 88 1
a 88 2
a 88 56
a 88 158
a 88 3
a 88 4
a 88 6
a 88 7
a 88 8
a 88 9
a 88 10
a 88 11
a 88 12
a 88 13
a 88 14
a 88 15
a 88 16
a 88 17
a 88 18
a 88 19
a 88 20
a 88 21
a 88 140
a 88 22
a 88 70
a 88 24
a 88 25
a 88 26
a 88 141
a 88 27
a 88 28
a 88 29
a 88 30
a 88 31
a 88 32
a 88 33
a 88 34
a 88 73
a 88 36
a 88 37
a 88 38
a 88 39
a 88 40
a 88 41
a 88 42
a 88 44
a 88 46
a 88 47
a 88 49
a 88 50
a 88 51
a 88 52
a 88 53
a 88 54
a 88 159
a 88 57
a 88 160
a 88 58
a 88 60
a 88 61
a 88 64
a 88 65
a 88 66
a 88 67
a 88 68
a 88 161
a 88 146
a 88 69
a 88 147
a 88 72
a 88 35
a 88 74
a 88 148
a 88 76
a 88 77
a 88 78
a 88 149
a 88 79
a 88 80
a 88 82
a 88 163
a 88 83
a 88 150
a 88 84
a 88 85
a 88 86
a 88 87
a 88 89
a 88 90
a 88 91
a 88 93
a 88 151
a 88 94
a 88 95
a 88 96
a 88 97
a 88 98
a 88 99
a 88 100
a 88 101
a 88 164
a 88 105
a 88 55
a 88 156
a 88 106
a 88 107
a 88 108
a 88 110
a 88 153
a 88 111
a 88 112
a 88 113
a 88 114
a 88 115
a 88 116
a 88 117
a 88 118
a 88 119
a 88 120
a 88 121
a 88 162
a 88 122
a 88 123
a 88 125
a 88 126
a 88 127
a 88 128
a 88 130
a 88 131
a 88 133
a 88 134
a 88 135
a 88 157
a 88 137
a 88 138
a 88 139
a 88 5
a 88 142
a 88 23
a 88 43
a 88 45
a 88 143
a 88 144
a 88 75
a 88 81
a 88 152
a 88 92
a 88 102
a 88 103
a 88 104
a 88 109
a 88 124
a 88 154
a 88 155
a 88 132
a 88 48
a 88 62
a 88 63
a 88 71
a 88 129
a 88 145
a 89 1
a 89 2
a 89 56
a 89 158
a 89 3
a 89 4
a 89 6
a 89 7
a 89 8
a 89 9
a 89 10
a 89 11
a 89 12
a 89 13
a 89 14
a 89 15
a 89 16
a 89 17
a 89 18
a 89 19
a 89 20
a 89 22
a 89 70
a 89 24
a 89 25
a 89 26
a 89 141
a 89 27
a 89 28
a 89 29
a 89 30
a 89 31
a 89 32
a 89 33
a 89 23
a 89 34
a 89 73
a 89 36
a 89 37
a 89 38
a 89 39
a 89 40
a 89 41
a 89 42
a 89 43
a 89 44
a 89 45
a 89 143
a 89 46
a 89 47
a 89 48
a 89 49
a 89 50
a 89 51
a 89 52
a 89 53
a 89 54
a 89 159
a 89 5
a 89 57
a 89 160
a 89 58
a 89 59
a 89 60
a 89 61
a 89 62
a 89 63
a 89 64
a 89 65
a 89 66
a 89 145
a 89 67
a 89 68
a 89 146
a 89 69
a 89 147
a 89 71
a 89 72
a 89 35
a 89 75
a 89 76
a 89 77
a 89 78
a 89 149
a 89 79
a 89 80
a 89 81
a 89 82
a 89 163
a 89 83
a 89 150
a 89 84
a 89 85
a 89 86
a 89 87
a 89 88
a 89 90
a 89 91
a 89 92
a 89 93
a 89 151
a 89 94
a 89 95
a 89 96
a 89 97
a 89 98
a 89 99
a 89 100
a 89 101
a 89 102
a 89 164
a 89 103
a 89 104
a 89 105
a 89 55
a 89 106
a 89 152
a 89 107
a 89 108
a 89 109
a 89 110
a 89 153
a 89 111
a 89 112
a 89 113
a 89 114
a 89 115
a 89 116
a 89 117
a 89 118
a 89 119
a 89 120
a 89 121
a 89 122
a 89 123
a 89 124
a 89 125
a 89 154
a 89 126
a 89 127
a 89 129
a 89 130
a 89 131
a 89 132
a 89 133
a 89 134
a 89 135
a 89 136
a 89 157
a 89 137
a 89 138
a 89 139
a 89 21
a 89 142
a 89 74
a 89 148
a 89 128
a 89 155
a 89 156
a 89 140
a 89 144
a 89 161
a 89 162
a 90 1
a 90 2
a 90 3
a 90 4
a 90 6
a 90 7
a 90 8
a 90 9
a 90 10
a 90 11
a 90 12
a 90 13
a 90 14
a 90 16
a 90 17
a 90 18
a 90 19
a 90 20
a 90 21
a 90 22
a 90 24
a 90 25
a 90 26
a 90 27
a 90 28
a 90 29
a 90 30
a 90 31
a 90 32
a 90 33
a 90 142
a 90 23
a 90 34
a 90 73
a 90 36
a 90 37
a 90 38
a 90 39
a 90 40
a 90 41
a 90 42
a 90 43
a 90 44
a 90 45
a 90 46
a 90 47
a 90 48
a 90 49
a 90 50
a 90 51
a 90 52
a 90 53
a 90 54
a 90 159
a 90 5
a 90 57
a 90 58
a 90 59
a 90 60
a 90 61
a 90 62
a 90 63
a 90 64
a 90 65
a 90 66
a 90 67
a 90 68
a 90 161
a 90 146
a 90 69
a 90 147
a 90 71
a 90 72
a 90 35
a 90 74
a 90 148
a 90 75
a 90 76
a 90 77
a 90 78
a 90 149
a 90 79
a 90 80
a 90 81
a 90 82
a 90 83
a 90 150
a 90 84
a 90 85
a 90 86
a 90 87
a 90 88
a 90 89
a 90 91
a 90 92
a 90 93
a 90 151
a 90 94
a 90 95
a 90 96
a 90 97
a 90 98
a 90 99
a 90 100
a 90 101
a 90 102
a 90 164
a 90 103
a 90 104
a 90 105
a 90 55
a 90 106
a 90 107
a 90 108
a 90 109
a 90 110
a 90 153
a 90 111
a 90 112
a 90 113
a 90 114
a 90 115
a 90 116
a 90 117
a 90 118
a 90 119
a 90 120
a 90 121
a 90 162
a 90 122
a 90 123
a 90 124
a 90 125
a 90 126
a 90 127
a 90 128
a 90 129
a 90 130
a 90 131
a 90 132
a 90 156
a 90 135
a 90 136
a 90 157
a 90 137
a 90 138
a 90 139
a 90 15
a 90 143
a 90 160
a 90 144
a 90 145
a 90 152
a 90 56
a 90 158
a 90 141
a 90 140
a 90 154
a 90 155
a 90 133
a 90 70
a 90 134
a 91 1
a 91 2
a 91 56
a 91 158
a 91 3
a 91 4
a 91 6
a 91 7
a 91 8
a 91 9
a 91 10
a 91 11
a 91 12
a 91 13
a 91 14
a 91 15
a 91 16
a 91 17
a 91 18
a 91 19
a 91 20
a 91 21
a 91 140
a 91 22
a 91 70
a 91 24
a 91 25
a 91 26
a 91 27
a 91 28
a 91 29
a 91 30
a 91 31
a 91 32
a 91 33
a 91 142
a 91 23
a 91 34
a 91 73
a 91 37
a 91 38
a 91 39
a 91 40
a 91 41
a 91 42
a 91 43
a 91 44
a 91 45
a 91 143
a 91 46
a 91 47
a 91 49
a 91 50
a 91 51
a 91 54
a 91 159
a 91 5
a 91 57
a 91 160
a 91 58
a 91 59
a 91 60
a 91 61
a 91 144
a 91 62
a 91 64
a 91 65
a 91 66
a 91 67
a 91 68
a 91 146
a 91 69
a 91 147
a 91 72
a 91 35
a 91 74
a 91 75
a 91 76
a 91 77
a 91 78
a 91 149
a 91 79
a 91 80
a 91 81
a 91 163
a 91 83
a 91 150
a 91 84
a 91 85
a 91 86
a 91 87
a 91 88
a 91 89
a 91 90
a 91 92
a 91 151
a 91 94
a 91 95
a 91 97
a 91 98
a 91 99
a 91 100
a 91 101
a 91 102
a 91 103
a 91 104
a 91 156
a 91 106
a 91 152
a 91 107
a 91 108
a 91 110
a 91 111
a 91 112
a 91 113
a 91 115
a 91 116
a 91 117
a 91 118
a 91 119
a 91 120
a 91 121
a 91 162
a 91 122
a 91 123
a 91 124
a 91 125
a 91 154
a 91 126
a 91 127
a 91 128
a 91 130
a 91 131
a 91 132
a 91 134
a 91 135
a 91 136
a 91 157
a 91 137
a 91 138
a 91 139
a 91 141
a 91 71
a 91 36
a 91 48
a 91 63
a 91 148
a 91 93
a 91 96
a 91 164
a 91 105
a 91 155
a 91 133
a 91 52
a 91 55
a 91 109
a 91 153
a 91 114
a 91 53
a 91 161
a 91 145
a 91 129
a 91 82
a 92 1
a 92 56
a 92 4
a 92 6
a 92 7
a 92 8
a 92 9
a 92 10
a 92 11
a 92 12
a 92 14
a 92 16
a 92 17
a 92 19
a 92 20
a 92 21
a 92 22
a 92 25
a 92 26
a 92 27
a 92 29
a 92 30
a 92 31
a 92 32
a 92 33
a 92 23
a 92 34
a 92 73
a 92 36
a 92 37
a 92 38
a 92 39
a 92 40
a 92 41
a 92 42
a 92 43
a 92 44
a 92 48
a 92 50
a 92 52
a 92 53
a 92 54
a 92 5
a 92 57
a 92 160
a 92 58
a 92 59
a 92 60
a 92 61
a 92 62
a 92 63
a 92 64
a 92 65
a 92 66
a 92 145
a 92 67
a 92 68
a 92 69
a 92 71
a 92 72
a 92 148
a 92 75
a 92 77
a 92 78
a 92 149
a 92 79
a 92 80
a 92 81
a 92 82
a 92 83
a 92 150
a 92 84
a 92 85
a 92 86
a 92 87
a 92 89
a 92 90
a 92 91
a 92 132
a 92 93
a 92 55
a 92 94
a 92 95
a 92 96
a 92 98
a 92 99
a 92 100
a 92 102
a 92 103
a 92 105
a 92 106
a 92 107
a 92 108
a 92 109
a 92 110
a 92 153
a 92 111
a 92 112
a 92 113
a 92 114
a 92 115
a 92 116
a 92 118
a 92 119
a 92 120
a 92 121
a 92 122
a 92 123
a 92 124
a 92 125
a 92 154
a 92 126
a 92 127
a 92 128
a 92 129
a 92 130
a 92 131
a 92 134
a 92 135
a 92 136
a 92 137
a 92 138
a 92 139
a 92 142
a 92 143
a 92 144
a 92 147
a 92 35
a 92 76
a 92 88
a 92 97
a 92 117
a 92 15
a 92 74
a 92 164
a 92 3
a 92 141
a 92 51
a 92 104
a 92 156
a 92 47
a 92 159
a 92 133
a 92 158
a 92 146
a 93 1
a 93 2
a 93 56
a 93 3
a 93 4
a 93 6
a 93 7
a 93 8
a 93 9
a 93 10
a 93 11
a 93 12
a 93 13
a 93 14
a 93 15
a 93 16
a 93 19
a 93 20
a 93 21
a 93 22
a 93 70
a 93 24
a 93 25
a 93 26
a 93 141
a 93 27
a 93 28
a 93 29
a 93 30
a 93 31
a 93 32
a 93 33
a 93 142
a 93 23
a 93 34
a 93 73
a 93 36
a 93 37
a 93 38
a 93 39
a 93 41
a 93 42
a 93 43
a 93 44
a 93 45
a 93 143
a 93 46
a 93 47
a 93 49
a 93 50
a 93 51
a 93 52
a 93 54
a 93 159
a 93 5
a 93 57
a 93 160
a 93 58
a 93 59
a 93 60
a 93 63
a 93 64
a 93 65
a 93 66
a 93 67
a 93 68
a 93 161
a 93 146
a 93 69
a 93 147
a 93 71
a 93 72
a 93 35
a 93 74
a 93 148
a 93 75
a 93 76
a 93 77
a 93 78
a 93 149
a 93 79
a 93 80
a 93 81
a 93 163
a 93 83
a 93 150
a 93 84
a 93 85
a 93 86
a 93 87
a 93 88
a 93 89
a 93 90
a 93 92
a 93 151
a 93 94
a 93 95
a 93 96
a 93 97
a 93 99
a 93 100
a 93 101
a 93 102
a 93 164
a 93 103
a 93 104
a 93 105
a 93 55
a 93 106
a 93 152
a 93 107
a 93 108
a 93 109
a 93 110
a 93 153
a 93 111
a 93 114
a 93 115
a 93 116
a 93 117
a 93 118
a 93 119
a 93 120
a 93 121
a 93 162
a 93 122
a 93 123
a 93 124
a 93 125
a 93 154
a 93 126
a 93 127
a 93 128
a 93 129
a 93 130
a 93 131
a 93 132
a 93 133
a 93 156
a 93 135
a 93 157
a 93 137
a 93 138
a 93 139
a 93 17
a 93 140
a 93 40
a 93 48
a 93 61
a 93 144
a 93 62
a 93 145
a 93 91
a 93 112
a 93 113
a 93 155
a 93 158
a 93 18
a 93 98
a 93 53
a 93 136
a 93 134
a 93 82
a 94 1
a 94 2
a 94 158
a 94 3
a 94 4
a 94 6
a 94 7
a 94 8
a 94 9
a 94 10
a 94 11
a 94 13
a 94 14
a 94 16
a 94 18
a 94 19
a 94 20
a 94 21
a 94 140
a 94 22
a 94 70
a 94 24
a 94 25
a 94 26
a 94 141
a 94 28
a 94 29
a 94 30
a 94 31
a 94 32
a 94 33
a 94 142
a 94 23
a 94 73
a 94 36
a 94 37
a 94 38
a 94 39
a 94 40
a 94 41
a 94 42
a 94 44
a 94 45
a 94 143
a 94 46
a 94 47
a 94 49
a 94 50
a 94 51
a 94 52
a 94 54
a 94 159
a 94 5
a 94 57
a 94 160
a 94 58
a 94 60
a 94 61
a 94 62
a 94 63
a 94 64
a 94 65
a 94 66
a 94 67
a 94 68
a 94 161
a 94 146
a 94 69
a 94 147
a 94 71
a 94 72
a 94 35
a 94 74
a 94 148
a 94 75
a 94 76
a 94 77
a 94 149
a 94 79
a 94 80
a 94 163
a 94 83
a 94 150
a 94 84
a 94 85
a 94 86
a 94 87
a 94 88
a 94 89
a 94 90
a 94 91
a 94 92
a 94 93
a 94 151
a 94 102
a 94 95
a 94 96
a 94 97
a 94 98
a 94 99
a 94 100
a 94 101
a 94 164
a 94 104
a 94 105
a 94 156
a 94 106
a 94 152
a 94 107
a 94 109
a 94 110
a 94 153
a 94 111
a 94 112
a 94 113
a 94 114
a 94 116
a 94 117
a 94 118
a 94 119
a 94 120
a 94 121
a 94 122
a 94 124
a 94 125
a 94 154
a 94 127
a 94 128
a 94 129
a 94 130
a 94 131
a 94 155
a 94 132
a 94 133
a 94 134
a 94 157
a 94 137
a 94 138
a 94 139
a 94 12
a 94 15
a 94 27
a 94 43
a 94 48
a 94 56
a 94 144
a 94 78
a 94 115
a 94 103
a 94 55
a 94 162
a 94 135
a 94 17
a 94 34
a 94 123
a 94 81
a 94 108
a 94 126
a 94 136
a 94 53
a 94 82
a 94 145
a 94 59
a 95 1
a 95 2
a 95 56
a 95 158
a 95 3
a 95 4
a 95 6
a 95 7
a 95 8
a 95 9
a 95 10
a 95 11
a 95 12
a 95 13
a 95 15
a 95 16
a 95 18
a 95 19
a 95 20
a 95 21
a 95 140
a 95 22
a 95 70
a 95 24
a 95 25
a 95 26
a 95 141
a 95 27
a 95 28
a 95 29
a 95 30
a 95 31
a 95 32
a 95 33
a 95 142
a 95 23
a 95 34
a 95 73
a 95 36
a 95 37
a 95 38
a 95 39
a 95 40
a 95 41
a 95 43
a 95 44
a 95 45
a 95 46
a 95 47
a 95 48
a 95 49
a 95 50
a 95 51
a 95 52
a 95 54
a 95 159
a 95 57
a 95 160
a 95 58
a 95 59
a 95 60
a 95 61
a 95 62
a 95 64
a 95 65
a 95 66
a 95 67
a 95 68
a 95 161
a 95 146
a 95 69
a 95 147
a 95 71
a 95 72
a 95 35
a 95 74
a 95 148
a 95 75
a 95 76
a 95 77
a 95 78
a 95 149
a 95 79
a 95 80
a 95 81
a 95 163
a 95 83
a 95 150
a 95 84
a 95 85
a 95 86
a 95 87
a 95 88
a 95 89
a 95 90
a 95 91
a 95 92
a 95 93
a 95 151
a 95 94
a 95 96
a 95 97
a 95 99
a 95 100
a 95 101
a 95 102
a 95 164
a 95 103
a 95 104
a 95 105
a 95 55
a 95 106
a 95 152
a 95 107
a 95 109
a 95 110
a 95 153
a 95 111
a 95 112
a 95 113
a 95 115
a 95 108
a 95 117
a 95 118
a 95 119
a 95 120
a 95 121
a 95 162
a 95 122
a 95 123
a 95 124
a 95 125
a 95 154
a 95 126
a 95 127
a 95 128
a 95 131
a 95 155
a 95 132
a 95 133
a 95 156
a 95 135
a 95 157
a 95 137
a 95 138
a 95 139
a 95 5
a 95 17
a 95 42
a 95 53
a 95 144
a 95 63
a 95 145
a 95 98
a 95 114
a 95 116
a 95 129
a 95 14
a 95 143
a 95 130
a 95 136
a 95 134
a 95 82
a 96 1
a 96 2
a 96 56
a 96 158
a 96 3
a 96 4
a 96 6
a 96 7
a 96 8
a 96 9
a 96 10
a 96 11
a 96 12
a 96 13
a 96 15
a 96 16
a 96 17
a 96 18
a 96 19
a 96 20
a 96 21
a 96 140
a 96 22
a 96 70
a 96 24
a 96 25
a 96 26
a 96 141
a 96 27
a 96 28
a 96 29
a 96 30
a 96 31
a 96 32
a 96 33
a 96 142
a 96 23
a 96 34
a 96 73
a 96 36
a 96 37
a 96 38
a 96 39
a 96 41
a 96 42
a 96 44
a 96 45
a 96 143
a 96 46
a 96 47
a 96 48
a 96 49
a 96 50
a 96 51
a 96 52
a 96 54
a 96 159
a 96 5
a 96 57
a 96 160
a 96 58
a 96 60
a 96 61
a 96 144
a 96 62
a 96 64
a 96 65
a 96 66
a 96 67
a 96 68
a 96 161
a 96 146
a 96 69
a 96 147
a 96 72
a 96 35
a 96 74
a 96 148
a 96 75
a 96 76
a 96 77
a 96 78
a 96 149
a 96 80
a 96 81
a 96 163
a 96 83
a 96 150
a 96 84
a 96 85
a 96 86
a 96 87
a 96 88
a 96 89
a 96 90
a 96 92
a 96 93
a 96 151
a 96 94
a 96 95
a 96 97
a 96 98
a 96 99
a 96 100
a 96 101
a 96 164
a 96 104
a 96 105
a 96 55
a 96 156
a 96 106
a 96 152
a 96 107
a 96 108
a 96 110
a 96 153
a 96 111
a 96 112
a 96 113
a 96 115
a 96 116
a 96 117
a 96 118
a 96 119
a 96 120
a 96 121
a 96 162
a 96 122
a 96 123
a 96 124
a 96 125
a 96 154
a 96 127
a 96 128
a 96 129
a 96 130
a 96 131
a 96 155
a 96 132
a 96 133
a 96 134
a 96 135
a 96 157
a 96 138
a 96 139
a 96 14
a 96 40
a 96 43
a 96 79
a 96 82
a 96 91
a 96 102
a 96 103
a 96 109
a 96 114
a 96 126
a 96 136
a 96 137
a 96 53
a 96 63
a 96 71
a 97 1
a 97 2
a 97 56
a 97 158
a 97 3
a 97 7
a 97 8
a 97 9
a 97 10
a 97 11
a 97 12
a 97 13
a 97 14
a 97 15
a 97 16
a 97 18
a 97 19
a 97 20
a 97 21
a 97 140
a 97 22
a 97 70
a 97 24
a 97 25
a 97 26
a 97 141
a 97 27
a 97 28
a 97 29
a 97 30
a 97 31
a 97 32
a 97 33
a 97 142
a 97 34
a 97 73
a 97 36
a 97 37
a 97 38
a 97 39
a 97 41
a 97 42
a 97 43
a 97 44
a 97 45
a 97 143
a 97 46
a 97 47
a 97 48
a 97 49
a 97 50
a 97 51
a 97 52
a 97 53
a 97 54
a 97 159
a 97 57
a 97 160
a 97 58
a 97 59
a 97 60
a 97 61
a 97 144
a 97 64
a 97 65
a 97 66
a 97 67
a 97 68
a 97 161
a 97 146
a 97 69
a 97 147
a 97 72
a 97 35
a 97 74
a 97 148
a 97 75
a 97 76
a 97 77
a 97 78
a 97 149
a 97 79
a 97 80
a 97 163
a 97 83
a 97 150
a 97 84
a 97 85
a 97 86
a 97 87
a 97 88
a 97 89
a 97 90
a 97 91
a 97 93
a 97 151
a 97 94
a 97 95
a 97 96
a 97 98
a 97 99
a 97 100
a 97 101
a 97 102
a 97 164
a 97 103
a 97 104
a 97 105
a 97 55
a 97 156
a 97 106
a 97 152
a 97 107
a 97 108
a 97 109
a 97 110
a 97 153
a 97 111
a 97 112
a 97 113
a 97 114
a 97 115
a 97 116
a 97 117
a 97 118
a 97 119
a 97 120
a 97 121
a 97 162
a 97 122
a 97 123
a 97 124
a 97 154
a 97 127
a 97 128
a 97 130
a 97 131
a 97 155
a 97 132
a 97 133
a 97 134
a 97 135
a 97 136
a 97 157
a 97 137
a 97 138
a 97 139
a 97 4
a 97 5
a 97 17
a 97 71
a 97 40
a 97 62
a 97 63
a 97 81
a 97 82
a 97 92
a 97 125
a 97 129
a 97 6
a 97 23
a 97 126
a 97 145
a 98 1
a 98 4
a 98 6
a 98 7
a 98 8
a 98 9
a 98 11
a 98 12
a 98 14
a 98 15
a 98 16
a 98 17
a 98 19
a 98 20
a 98 22
a 98 25
a 98 26
a 98 27
a 98 29
a 98 30
a 98 31
a 98 32
a 98 23
a 98 73
a 98 36
a 98 37
a 98 38
a 98 40
a 98 41
a 98 43
a 98 46
a 98 48
a 98 52
a 98 53
a 98 5
a 98 57
a 98 59
a 98 60
a 98 61
a 98 62
a 98 63
a 98 64
a 98 65
a 98 145
a 98 67
a 98 68
a 98 71
a 98 35
a 98 148
a 98 75
a 98 77
a 98 78
a 98 79
a 98 80
a 98 81
a 98 82
a 98 83
a 98 88
a 98 89
a 98 90
a 98 91
a 98 92
a 98 94
a 98 96
a 98 97
a 98 132
a 98 102
a 98 55
a 98 115
a 98 100
a 98 103
a 98 107
a 98 110
a 98 111
a 98 112
a 98 113
a 98 114
a 98 116
a 98 119
a 98 120
a 98 121
a 98 122
a 98 123
a 98 124
a 98 125
a 98 154
a 98 126
a 98 127
a 98 128
a 98 129
a 98 130
a 98 134
a 98 135
a 98 136
a 98 157
a 98 137
a 98 138
a 98 139
a 98 2
a 98 18
a 98 34
a 98 39
a 98 50
a 98 56
a 98 144
a 98 146
a 98 69
a 98 147
a 98 84
a 98 87
a 98 95
a 98 99
a 98 105
a 98 153
a 98 118
a 98 10
a 98 141
a 98 28
a 98 93
a 98 42
a 98 44
a 98 54
a 98 160
a 98 58
a 98 72
a 98 85
a 98 86
a 98 164
a 98 106
a 98 152
a 98 131
a 98 133
a 98 3
a 98 13
a 98 70
a 98 21
a 98 33
a 98 76
a 98 104
a 98 108
a 98 109
a 98 162
a 98 158
a 98 74
a 98 151
a 98 140
a 98 66
a 98 101
a 98 117
a 98 155
a 98 47
a 98 142
a 98 159
a 98 156
a 98 150
a 98 143
a 98 24
a 98 49
a 98 161
a 98 45
a 98 51
a 98 149
a 99 1
a 99 2
a 99 56
a 99 158
a 99 3
a 99 4
a 99 6
a 99 7
a 99 8
a 99 9
a 99 10
a 99 15
a 99 17
a 99 19
a 99 20
a 99 21
a 99 140
a 99 22
a 99 70
a 99 24
a 99 25
a 99 26
a 99 141
a 99 27
a 99 28
a 99 29
a 99 30
a 99 31
a 99 32
a 99 33
a 99 23
a 99 34
a 99 73
a 99 37
a 99 38
a 99 39
a 99 40
a 99 42
a 99 43
a 99 44
a 99 45
a 99 143
a 99 46
a 99 47
a 99 48
a 99 49
a 99 50
a 99 51
a 99 52
a 99 54
a 99 159
a 99 5
a 99 57
a 99 160
a 99 58
a 99 60
a 99 61
a 99 144
a 99 62
a 99 64
a 99 65
a 99 66
a 99 67
a 99 68
a 99 161
a 99 146
a 99 69
a 99 147
a 99 71
a 99 72
a 99 35
a 99 74
a 99 148
a 99 76
a 99 77
a 99 78
a 99 149
a 99 81
a 99 83
a 99 150
a 99 84
a 99 85
a 99 86
a 99 87
a 99 88
a 99 89
a 99 90
a 99 91
a 99 92
a 99 93
a 99 151
a 99 94
a 99 95
a 99 96
a 99 97
a 99 132
a 99 100
a 99 101
a 99 102
a 99 164
a 99 104
a 99 105
a 99 55
a 99 156
a 99 106
a 99 152
a 99 107
a 99 108
a 99 109
a 99 110
a 99 153
a 99 111
a 99 112
a 99 113
a 99 115
a 99 116
a 99 117
a 99 118
a 99 119
a 99 120
a 99 162
a 99 122
a 99 123
a 99 124
a 99 154
a 99 126
a 99 127
a 99 128
a 99 129
a 99 130
a 99 131
a 99 155
a 99 133
a 99 134
a 99 135
a 99 157
a 99 137
a 99 138
a 99 139
a 99 11
a 99 12
a 99 13
a 99 14
a 99 16
a 99 18
a 99 142
a 99 145
a 99 75
a 99 79
a 99 98
a 99 114
a 99 121
a 99 63
a 99 80
a 99 103
a 99 125
a 99 36
a 99 41
a 99 163
a 99 53
a 99 82
a 100 1
a 100 2
a 100 56
a 100 158
a 100 3
a 100 4
a 100 6
a 100 7
a 100 8
a 100 9
a 100 10
a 100 11
a 100 12
a 100 13
a 100 14
a 100 15
a 100 16
a 100 17
a 100 18
a 100 19
a 100 20
a 100 21
a 100 140
a 100 22
a 100 70
a 100 24
a 100 25
a 100 26
a 100 141
a 100 27
a 100 28
a 100 29
a 100 30
a 100 31
a 100 32
a 100 33
a 100 142
a 100 23
a 100 34
a 100 73
a 100 36
a 100 37
a 100 38
a 100 39
a 100 40
a 100 41
a 100 42
a 100 43
a 100 44
a 100 45
a 100 143
a 100 46
a 100 47
a 100 48
a 100 49
a 100 50
a 100 51
a 100 52
a 100 53
a 100 54
a 100 159
a 100 5
a 100 57
a 100 160
a 100 58
a 100 59
a 100 60
a 100 61
a 100 62
a 100 63
a 100 64
a 100 65
a 100 66
a 100 67
a 100 68
a 100 161
a 100 146
a 100 69
a 100 147
a 100 71
a 100 72
a 100 35
a 100 74
a 100 75
a 100 76
a 100 77
a 100 78
a 100 149
a 100 79
a 100 80
a 100 81
a 100 82
a 100 163
a 100 83
a 100 150
a 100 84
a 100 86
a 100 87
a 100 88
a 100 89
a 100 90
a 100 91
a 100 92
a 100 93
a 100 94
a 100 95
a 100 96
a 100 97
a 100 98
a 100 99
a 100 101
a 100 102
a 100 164
a 100 103
a 100 104
a 100 105
a 100 55
a 100 156
a 100 106
a 100 152
a 100 107
a 100 108
a 100 109
a 100 110
a 100 153
a 100 111
a 100 112
a 100 113
a 100 114
a 100 115
a 100 116
a 100 117
a 100 118
a 100 119
a 100 120
a 100 121
a 100 162
a 100 122
a 100 123
a 100 124
a 100 125
a 100 154
a 100 126
a 100 127
a 100 128
a 100 129
a 100 130
a 100 131
a 100 155
a 100 132
a 100 133
a 100 134
a 100 135
a 100 136
a 100 157
a 100 137
a 100 138
a 100 139
a 100 144
a 100 145
a 100 148
a 100 85
a 100 151
a 101 1
a 101 2
a 101 56
a 101 158
a 101 3
a 101 4
a 101 6
a 101 7
a 101 9
a 101 10
a 101 11
a 101 13
a 101 15
a 101 16
a 101 17
a 101 18
a 101 19
a 101 20
a 101 21
a 101 140
a 101 22
a 101 70
a 101 24
a 101 141
a 101 27
a 101 28
a 101 29
a 101 30
a 101 31
a 101 32
a 101 33
a 101 142
a 101 23
a 101 34
a 101 73
a 101 36
a 101 37
a 101 39
a 101 42
a 101 43
a 101 44
a 101 45
a 101 143
a 101 46
a 101 47
a 101 49
a 101 50
a 101 51
a 101 52
a 101 54
a 101 159
a 101 5
a 101 57
a 101 160
a 101 58
a 101 60
a 101 61
a 101 144
a 101 64
a 101 65
a 101 66
a 101 67
a 101 68
a 101 161
a 101 146
a 101 69
a 101 147
a 101 72
a 101 35
a 101 74
a 101 148
a 101 75
a 101 76
a 101 77
a 101 78
a 101 149
a 101 79
a 101 80
a 101 81
a 101 163
a 101 83
a 101 150
a 101 84
a 101 85
a 101 87
a 101 88
a 101 89
a 101 90
a 101 91
a 101 93
a 101 151
a 101 94
a 101 95
a 101 96
a 101 97
a 101 99
a 101 100
a 101 115
a 101 164
a 101 103
a 101 104
a 101 105
a 101 55
a 101 106
a 101 152
a 101 107
a 101 109
a 101 110
a 101 153
a 101 111
a 101 112
a 101 113
a 101 114
a 101 116
a 101 117
a 101 118
a 101 119
a 101 120
a 101 121
a 101 162
a 101 122
a 101 123
a 101 125
a 101 154
a 101 126
a 101 127
a 101 128
a 101 129
a 101 155
a 101 133
a 101 156
a 101 135
a 101 157
a 101 137
a 101 139
a 101 8
a 101 14
a 101 25
a 101 48
a 101 124
a 101 131
a 101 138
a 101 38
a 101 132
a 101 41
a 101 86
a 101 108
a 101 26
a 101 40
a 101 53
a 101 62
a 101 12
a 101 63
a 101 98
a 101 71
a 101 102
a 101 82
a 101 145
a 102 1
a 102 158
a 102 4
a 102 6
a 102 7
a 102 9
a 102 10
a 102 11
a 102 12
a 102 14
a 102 15
a 102 16
a 102 17
a 102 18
a 102 19
a 102 20
a 102 21
a 102 22
a 102 25
a 102 26
a 102 141
a 102 27
a 102 28
a 102 29
a 102 30
a 102 31
a 102 32
a 102 33
a 102 23
a 102 34
a 102 73
a 102 36
a 102 37
a 102 38
a 102 39
a 102 40
a 102 41
a 102 43
a 102 44
a 102 48
a 102 49
a 102 52
a 102 54
a 102 5
a 102 57
a 102 58
a 102 59
a 102 60
a 102 61
a 102 62
a 102 63
a 102 64
a 102 65
a 102 66
a 102 145
a 102 67
a 102 68
a 102 146
a 102 147
a 102 71
a 102 72
a 102 75
a 102 77
a 102 78
a 102 79
a 102 80
a 102 81
a 102 82
a 102 83
a 102 84
a 102 85
a 102 86
a 102 87
a 102 89
a 102 90
a 102 91
a 102 92
a 102 93
a 102 94
a 102 95
a 102 97
a 102 98
a 102 99
a 102 100
a 102 132
a 102 55
a 102 164
a 102 103
a 102 104
a 102 105
a 102 106
a 102 107
a 102 108
a 102 110
a 102 153
a 102 111
a 102 112
a 102 113
a 102 114
a 102 115
a 102 116
a 102 118
a 102 119
a 102 120
a 102 121
a 102 162
a 102 122
a 102 123
a 102 124
a 102 125
a 102 126
a 102 127
a 102 129
a 102 130
a 102 134
a 102 135
a 102 137
a 102 138
a 102 139
a 102 8
a 102 13
a 102 50
a 102 53
a 102 56
a 102 160
a 102 69
a 102 35
a 102 76
a 102 149
a 102 88
a 102 96
a 102 156
a 102 117
a 102 154
a 102 128
a 102 133
a 102 136
a 102 2
a 102 24
a 102 142
a 102 42
a 102 143
a 102 144
a 102 74
a 102 148
a 102 155
a 102 47
a 102 109
a 102 140
a 102 161
a 102 157
a 102 131
a 102 3
a 102 45
a 102 159
a 102 151
a 102 152
a 102 51
a 102 70
a 102 46
a 102 101
a 102 163
a 103 1
a 103 2
a 103 4
a 103 6
a 103 7
a 103 9
a 103 11
a 103 12
a 103 14
a 103 15
a 103 16
a 103 17
a 103 18
a 103 19
a 103 20
a 103 22
a 103 24
a 103 25
a 103 26
a 103 27
a 103 28
a 103 29
a 103 30
a 103 31
a 103 32
a 103 33
a 103 142
a 103 23
a 103 34
a 103 73
a 103 36
a 103 37
a 103 38
a 103 40
a 103 41
a 103 43
a 103 48
a 103 49
a 103 50
a 103 51
a 103 52
a 103 53
a 103 54
a 103 5
a 103 57
a 103 160
a 103 58
a 103 59
a 103 60
a 103 61
a 103 62
a 103 63
a 103 64
a 103 65
a 103 145
a 103 67
a 103 68
a 103 69
a 103 71
a 103 35
a 103 75
a 103 78
a 103 79
a 103 80
a 103 81
a 103 82
a 103 83
a 103 84
a 103 87
a 103 89
a 103 90
a 103 91
a 103 92
a 103 93
a 103 95
a 103 97
a 103 98
a 103 100
a 103 101
a 103 102
a 103 132
a 103 55
a 103 115
a 103 104
a 103 105
a 103 107
a 103 108
a 103 109
a 103 110
a 103 153
a 103 111
a 103 112
a 103 114
a 103 116
a 103 118
a 103 119
a 103 121
a 103 122
a 103 123
a 103 124
a 103 125
a 103 126
a 103 128
a 103 129
a 103 130
a 103 131
a 103 133
a 103 134
a 103 135
a 103 136
a 103 137
a 103 138
a 103 139
a 103 3
a 103 8
a 103 13
a 103 21
a 103 70
a 103 39
a 103 42
a 103 56
a 103 66
a 103 146
a 103 147
a 103 148
a 103 76
a 103 77
a 103 85
a 103 88
a 103 94
a 103 96
a 103 156
a 103 106
a 103 117
a 103 127
a 103 157
a 103 158
a 103 10
a 103 47
a 103 151
a 103 99
a 103 164
a 103 86
a 103 141
a 103 140
a 103 46
a 103 144
a 103 72
a 103 113
a 103 120
a 103 162
a 103 149
a 103 152
a 103 154
a 103 45
a 103 163
a 103 155
a 103 74
a 103 161
a 103 143
a 103 159
a 103 150
a 104 1
a 104 2
a 104 158
a 104 3
a 104 4
a 104 6
a 104 7
a 104 8
a 104 9
a 104 10
a 104 11
a 104 12
a 104 13
a 104 14
a 104 15
a 104 16
a 104 17
a 104 19
a 104 20
a 104 140
a 104 22
a 104 70
a 104 24
a 104 25
a 104 141
a 104 27
a 104 28
a 104 29
a 104 30
a 104 31
a 104 32
a 104 142
a 104 23
a 104 34
a 104 73
a 104 36
a 104 37
a 104 38
a 104 39
a 104 40
a 104 41
a 104 42
a 104 43
a 104 44
a 104 46
a 104 47
a 104 48
a 104 49
a 104 50
a 104 52
a 104 54
a 104 5
a 104 57
a 104 160
a 104 58
a 104 59
a 104 60
a 104 61
a 104 144
a 104 64
a 104 65
a 104 66
a 104 145
a 104 68
a 104 146
a 104 69
a 104 147
a 104 72
a 104 35
a 104 74
a 104 148
a 104 75
a 104 76
a 104 77
a 104 78
a 104 149
a 104 79
a 104 80
a 104 163
a 104 83
a 104 150
a 104 84
a 104 85
a 104 86
a 104 87
a 104 89
a 104 90
a 104 91
a 104 93
a 104 151
a 104 94
a 104 95
a 104 96
a 104 97
a 104 99
a 104 100
a 104 101
a 104 102
a 104 164
a 104 103
a 104 55
a 104 105
a 104 156
a 104 106
a 104 152
a 104 107
a 104 108
a 104 109
a 104 110
a 104 153
a 104 111
a 104 112
a 104 113
a 104 114
a 104 115
a 104 116
a 104 117
a 104 118
a 104 119
a 104 120
a 104 121
a 104 162
a 104 122
a 104 123
a 104 124
a 104 125
a 104 154
a 104 126
a 104 127
a 104 128
a 104 129
a 104 130
a 104 131
a 104 155
a 104 132
a 104 133
a 104 134
a 104 135
a 104 136
a 104 157
a 104 137
a 104 138
a 104 139
a 104 18
a 104 21
a 104 33
a 104 45
a 104 143
a 104 51
a 104 159
a 104 62
a 104 63
a 104 67
a 104 88
a 104 56
a 104 26
a 104 161
a 104 81
a 104 98
a 104 53
a 104 92
a 104 71
a 104 82
a 105 1
a 105 2
a 105 56
a 105 158
a 105 3
a 105 4
a 105 6
a 105 7
a 105 8
a 105 9
a 105 10
a 105 11
a 105 13
a 105 15
a 105 18
a 105 19
a 105 20
a 105 21
a 105 140
a 105 22
a 105 70
a 105 24
a 105 25
a 105 26
a 105 141
a 105 27
a 105 28
a 105 29
a 105 31
a 105 32
a 105 33
a 105 142
a 105 34
a 105 73
a 105 36
a 105 37
a 105 38
a 105 39
a 105 42
a 105 44
a 105 45
a 105 143
a 105 46
a 105 47
a 105 49
a 105 50
a 105 51
a 105 52
a 105 54
a 105 159
a 105 5
a 105 57
a 105 160
a 105 58
a 105 59
a 105 60
a 105 144
a 105 62
a 105 64
a 105 65
a 105 66
a 105 68
a 105 161
a 105 146
a 105 69
a 105 147
a 105 71
a 105 72
a 105 35
a 105 74
a 105 148
a 105 75
a 105 76
a 105 77
a 105 149
a 105 79
a 105 80
a 105 163
a 105 83
a 105 150
a 105 84
a 105 85
a 105 86
a 105 87
a 105 88
a 105 89
a 105 90
a 105 92
a 105 93
a 105 151
a 105 94
a 105 95
a 105 96
a 105 97
a 105 99
a 105 100
a 105 101
a 105 102
a 105 164
a 105 103
a 105 104
a 105 55
a 105 106
a 105 152
a 105 107
a 105 108
a 105 109
a 105 110
a 105 153
a 105 111
a 105 112
a 105 113
a 105 115
a 105 116
a 105 117
a 105 118
a 105 119
a 105 120
a 105 121
a 105 162
a 105 122
a 105 123
a 105 154
a 105 127
a 105 128
a 105 131
a 105 155
a 105 132
a 105 133
a 105 156
a 105 135
a 105 136
a 105 157
a 105 138
a 105 139
a 105 30
a 105 23
a 105 40
a 105 41
a 105 43
a 105 63
a 105 67
a 105 78
a 105 91
a 105 98
a 105 114
a 105 124
a 105 126
a 105 137
a 105 12
a 105 17
a 105 61
a 105 125
a 105 14
a 105 16
a 105 48
a 105 53
a 105 81
a 105 130
a 105 145
a 105 129
a 105 82
a 106 1
a 106 2
a 106 56
a 106 158
a 106 3
a 106 4
a 106 6
a 106 8
a 106 9
a 106 10
a 106 12
a 106 14
a 106 15
a 106 16
a 106 18
a 106 19
a 106 20
a 106 21
a 106 140
a 106 22
a 106 70
a 106 24
a 106 25
a 106 26
a 106 141
a 106 27
a 106 28
a 106 29
a 106 30
a 106 31
a 106 33
a 106 142
a 106 23
a 106 34
a 106 73
a 106 36
a 106 38
a 106 39
a 106 40
a 106 41
a 106 42
a 106 43
a 106 44
a 106 45
a 106 143
a 106 46
a 106 47
a 106 48
a 106 49
a 106 50
a 106 51
a 106 52
a 106 53
a 106 54
a 106 159
a 106 5
a 106 57
a 106 160
a 106 58
a 106 59
a 106 60
a 106 61
a 106 144
a 106 62
a 106 63
a 106 64
a 106 65
a 106 66
a 106 67
a 106 68
a 106 161
a 106 146
a 106 69
a 106 147
a 106 71
a 106 72
a 106 35
a 106 74
a 106 148
a 106 76
a 106 77
a 106 78
a 106 149
a 106 79
a 106 80
a 106 81
a 106 163
a 106 83
a 106 150
a 106 84
a 106 85
a 106 86
a 106 87
a 106 88
a 106 89
a 106 90
a 106 91
a 106 92
a 106 93
a 106 151
a 106 94
a 106 95
a 106 96
a 106 97
a 106 99
a 106 100
a 106 101
a 106 102
a 106 164
a 106 104
a 106 105
a 106 55
a 106 156
a 106 132
a 106 152
a 106 107
a 106 108
a 106 109
a 106 110
a 106 153
a 106 111
a 106 112
a 106 113
a 106 114
a 106 115
a 106 116
a 106 117
a 106 118
a 106 119
a 106 120
a 106 121
a 106 162
a 106 122
a 106 123
a 106 124
a 106 125
a 106 154
a 106 126
a 106 127
a 106 128
a 106 129
a 106 131
a 106 155
a 106 133
a 106 134
a 106 135
a 106 157
a 106 137
a 106 138
a 106 139
a 106 7
a 106 11
a 106 13
a 106 32
a 106 37
a 106 145
a 106 75
a 106 103
a 106 130
a 106 98
a 106 17
a 106 136
a 107 1
a 107 2
a 107 56
a 107 4
a 107 6
a 107 7
a 107 8
a 107 9
a 107 10
a 107 11
a 107 12
a 107 14
a 107 16
a 107 17
a 107 18
a 107 19
a 107 20
a 107 21
a 107 22
a 107 70
a 107 24
a 107 25
a 107 26
a 107 27
a 107 28
a 107 29
a 107 30
a 107 31
a 107 32
a 107 33
a 107 142
a 107 23
a 107 34
a 107 73
a 107 36
a 107 37
a 107 38
a 107 39
a 107 40
a 107 41
a 107 42
a 107 43
a 107 44
a 107 143
a 107 46
a 107 47
a 107 48
a 107 49
a 107 50
a 107 51
a 107 52
a 107 53
a 107 54
a 107 5
a 107 57
a 107 160
a 107 58
a 107 59
a 107 60
a 107 61
a 107 62
a 107 63
a 107 64
a 107 65
a 107 66
a 107 145
a 107 67
a 107 68
a 107 146
a 107 69
a 107 147
a 107 71
a 107 72
a 107 148
a 107 75
a 107 77
a 107 78
a 107 149
a 107 79
a 107 80
a 107 81
a 107 82
a 107 83
a 107 84
a 107 85
a 107 86
a 107 87
a 107 88
a 107 89
a 107 90
a 107 91
a 107 92
a 107 93
a 107 151
a 107 94
a 107 95
a 107 96
a 107 97
a 107 98
a 107 99
a 107 100
a 107 101
a 107 102
a 107 103
a 107 104
a 107 105
a 107 55
a 107 156
a 107 106
a 107 152
a 107 108
a 107 110
a 107 153
a 107 111
a 107 112
a 107 113
a 107 114
a 107 115
a 107 116
a 107 117
a 107 118
a 107 119
a 107 120
a 107 121
a 107 122
a 107 123
a 107 124
a 107 125
a 107 154
a 107 126
a 107 127
a 107 129
a 107 130
a 107 131
a 107 155
a 107 132
a 107 133
a 107 134
a 107 135
a 107 136
a 107 157
a 107 137
a 107 138
a 107 139
a 107 3
a 107 13
a 107 15
a 107 140
a 107 141
a 107 45
a 107 159
a 107 144
a 107 35
a 107 76
a 107 128
a 107 74
a 107 164
a 107 161
a 107 162
a 107 109
a 107 158
a 107 150
a 107 163
a 108 1
a 108 2
a 108 56
a 108 158
a 108 3
a 108 4
a 108 7
a 108 8
a 108 9
a 108 10
a 108 11
a 108 13
a 108 14
a 108 15
a 108 16
a 108 18
a 108 19
a 108 20
a 108 21
a 108 140
a 108 22
a 108 24
a 108 26
a 108 141
a 108 27
a 108 28
a 108 29
a 108 31
a 108 33
a 108 142
a 108 34
a 108 73
a 108 36
a 108 37
a 108 38
a 108 39
a 108 41
a 108 42
a 108 44
a 108 45
a 108 143
a 108 46
a 108 47
a 108 48
a 108 49
a 108 50
a 108 51
a 108 52
a 108 54
a 108 159
a 108 57
a 108 160
a 108 58
a 108 59
a 108 60
a 108 144
a 108 62
a 108 63
a 108 64
a 108 65
a 108 66
a 108 67
a 108 68
a 108 161
a 108 146
a 108 69
a 108 147
a 108 71
a 108 72
a 108 35
a 108 74
a 108 148
a 108 75
a 108 76
a 108 77
a 108 149
a 108 79
a 108 80
a 108 81
a 108 163
a 108 83
a 108 150
a 108 84
a 108 85
a 108 86
a 108 88
a 108 89
a 108 90
a 108 91
a 108 92
a 108 93
a 108 151
a 108 95
a 108 96
a 108 97
a 108 99
a 108 100
a 108 102
a 108 164
a 108 103
a 108 104
a 108 105
a 108 55
a 108 156
a 108 106
a 108 152
a 108 107
a 108 132
a 108 109
a 108 110
a 108 153
a 108 111
a 108 112
a 108 113
a 108 114
a 108 115
a 108 116
a 108 117
a 108 118
a 108 119
a 108 120
a 108 121
a 108 162
a 108 122
a 108 123
a 108 124
a 108 125
a 108 154
a 108 126
a 108 127
a 108 128
a 108 131
a 108 133
a 108 134
a 108 135
a 108 157
a 108 137
a 108 138
a 108 139
a 108 5
a 108 6
a 108 12
a 108 17
a 108 70
a 108 25
a 108 30
a 108 32
a 108 23
a 108 43
a 108 61
a 108 78
a 108 87
a 108 130
a 108 155
a 108 40
a 108 94
a 108 101
a 108 53
a 108 145
a 108 98
a 108 129
a 108 82
a 109 1
a 109 2
a 109 56
a 109 158
a 109 3
a 109 4
a 109 7
a 109 9
a 109 10
a 109 11
a 109 13
a 109 18
a 109 19
a 109 21
a 109 140
a 109 22
a 109 70
a 109 25
a 109 141
a 109 27
a 109 28
a 109 30
a 109 31
a 109 33
a 109 142
a 109 23
a 109 34
a 109 37
a 109 39
a 109 41
a 109 44
a 109 45
a 109 143
a 109 46
a 109 47
a 109 49
a 109 51
a 109 52
a 109 54
a 109 159
a 109 57
a 109 160
a 109 58
a 109 60
a 109 144
a 109 65
a 109 66
a 109 67
a 109 161
a 109 147
a 109 72
a 109 74
a 109 148
a 109 75
a 109 76
a 109 77
a 109 81
a 109 163
a 109 83
a 109 150
a 109 84
a 109 85
a 109 87
a 109 89
a 109 90
a 109 92
a 109 93
a 109 151
a 109 94
a 109 95
a 109 97
a 109 99
a 109 100
a 109 101
a 109 164
a 109 103
a 109 104
a 109 105
a 109 55
a 109 156
a 109 106
a 109 152
a 109 108
a 109 110
a 109 153
a 109 112
a 109 116
a 109 117
a 109 118
a 109 120
a 109 121
a 109 162
a 109 122
a 109 123
a 109 124
a 109 154
a 109 126
a 109 127
a 109 128
a 109 129
a 109 155
a 109 133
a 109 135
a 109 157
a 109 15
a 109 20
a 109 24
a 109 36
a 109 38
a 109 42
a 109 50
a 109 62
a 109 68
a 109 69
a 109 78
a 109 149
a 109 79
a 109 88
a 109 96
a 109 113
a 109 115
a 109 119
a 109 131
a 109 8
a 109 14
a 109 16
a 109 29
a 109 32
a 109 73
a 109 35
a 109 91
a 109 111
a 109 114
a 109 86
a 109 125
a 109 132
a 109 137
a 109 138
a 109 139
a 109 12
a 109 26
a 109 71
a 109 40
a 109 43
a 109 48
a 109 5
a 109 61
a 109 64
a 109 146
a 109 98
a 109 102
a 109 63
a 109 6
a 109 80
a 109 107
a 109 130
a 109 17
a 109 53
a 109 82
a 109 145
a 110 1
a 110 2
a 110 56
a 110 3
a 110 4
a 110 6
a 110 7
a 110 8
a 110 9
a 110 10
a 110 11
a 110 12
a 110 13
a 110 14
a 110 15
a 110 16
a 110 17
a 110 18
a 110 19
a 110 20
a 110 21
a 110 140
a 110 22
a 110 70
a 110 25
a 110 26
a 110 141
a 110 27
a 110 28
a 110 29
a 110 30
a 110 31
a 110 32
a 110 33
a 110 142
a 110 23
a 110 34
a 110 73
a 110 36
a 110 37
a 110 38
a 110 39
a 110 40
a 110 41
a 110 42
a 110 43
a 110 44
a 110 143
a 110 46
a 110 47
a 110 48
a 110 49
a 110 50
a 110 51
a 110 52
a 110 53
a 110 54
a 110 5
a 110 57
a 110 160
a 110 58
a 110 59
a 110 60
a 110 61
a 110 144
a 110 62
a 110 63
a 110 64
a 110 65
a 110 66
a 110 145
a 110 67
a 110 68
a 110 146
a 110 69
a 110 147
a 110 71
a 110 72
a 110 35
a 110 148
a 110 75
a 110 76
a 110 77
a 110 78
a 110 149
a 110 79
a 110 80
a 110 81
a 110 82
a 110 163
a 110 83
a 110 150
a 110 84
a 110 85
a 110 87
a 110 88
a 110 89
a 110 90
a 110 91
a 110 92
a 110 93
a 110 151
a 110 94
a 110 95
a 110 96
a 110 97
a 110 98
a 110 99
a 110 100
a 110 101
a 110 102
a 110 164
a 110 103
a 110 104
a 110 105
a 110 55
a 110 156
a 110 106
a 110 152
a 110 107
a 110 108
a 110 109
a 110 115
a 110 153
a 110 111
a 110 112
a 110 113
a 110 114
a 110 116
a 110 117
a 110 118
a 110 119
a 110 120
a 110 121
a 110 162
a 110 122
a 110 123
a 110 124
a 110 125
a 110 154
a 110 126
a 110 127
a 110 128
a 110 129
a 110 130
a 110 131
a 110 155
a 110 132
a 110 133
a 110 134
a 110 135
a 110 136
a 110 157
a 110 137
a 110 138
a 110 139
a 110 24
a 110 45
a 110 159
a 110 74
a 110 86
a 110 158
a 110 161
a 111 1
a 111 2
a 111 56
a 111 4
a 111 6
a 111 7
a 111 8
a 111 9
a 111 10
a 111 11
a 111 12
a 111 14
a 111 15
a 111 16
a 111 17
a 111 18
a 111 19
a 111 20
a 111 21
a 111 22
a 111 70
a 111 24
a 111 25
a 111 26
a 111 27
a 111 28
a 111 29
a 111 30
a 111 31
a 111 32
a 111 33
a 111 23
a 111 34
a 111 73
a 111 36
a 111 37
a 111 38
a 111 39
a 111 40
a 111 41
a 111 43
a 111 44
a 111 46
a 111 48
a 111 49
a 111 50
a 111 51
a 111 52
a 111 53
a 111 54
a 111 159
a 111 5
a 111 57
a 111 160
a 111 58
a 111 59
a 111 60
a 111 61
a 111 62
a 111 63
a 111 64
a 111 65
a 111 66
a 111 67
a 111 68
a 111 146
a 111 69
a 111 71
a 111 72
a 111 35
a 111 75
a 111 76
a 111 77
a 111 78
a 111 149
a 111 79
a 111 80
a 111 81
a 111 83
a 111 150
a 111 84
a 111 85
a 111 86
a 111 87
a 111 88
a 111 89
a 111 90
a 111 91
a 111 92
a 111 93
a 111 94
a 111 95
a 111 96
a 111 97
a 111 98
a 111 99
a 111 100
a 111 101
a 111 102
a 111 164
a 111 103
a 111 104
a 111 105
a 111 55
a 111 156
a 111 106
a 111 152
a 111 107
a 111 108
a 111 110
a 111 153
a 111 112
a 111 113
a 111 114
a 111 115
a 111 116
a 111 118
a 111 119
a 111 121
a 111 122
a 111 123
a 111 124
a 111 125
a 111 154
a 111 126
a 111 127
a 111 129
a 111 130
a 111 155
a 111 132
a 111 135
a 111 136
a 111 137
a 111 138
a 111 139
a 111 42
a 111 45
a 111 145
a 111 147
a 111 148
a 111 82
a 111 163
a 111 151
a 111 117
a 111 120
a 111 128
a 111 131
a 111 157
a 111 158
a 111 13
a 111 140
a 111 47
a 111 144
a 111 109
a 111 162
a 111 133
a 111 141
a 111 142
a 111 134
a 111 161
a 111 74
a 111 3
a 111 143
a 112 1
a 112 2
a 112 56
a 112 158
a 112 3
a 112 4
a 112 6
a 112 7
a 112 8
a 112 9
a 112 10
a 112 11
a 112 12
a 112 14
a 112 15
a 112 16
a 112 17
a 112 18
a 112 19
a 112 20
a 112 21
a 112 140
a 112 22
a 112 70
a 112 24
a 112 25
a 112 26
a 112 141
a 112 27
a 112 28
a 112 29
a 112 30
a 112 31
a 112 32
a 112 33
a 112 23
a 112 34
a 112 73
a 112 36
a 112 37
a 112 38
a 112 39
a 112 40
a 112 41
a 112 42
a 112 43
a 112 44
a 112 143
a 112 46
a 112 47
a 112 48
a 112 49
a 112 50
a 112 52
a 112 54
a 112 159
a 112 5
a 112 57
a 112 160
a 112 58
a 112 59
a 112 60
a 112 61
a 112 144
a 112 62
a 112 63
a 112 64
a 112 65
a 112 66
a 112 67
a 112 68
a 112 161
a 112 146
a 112 69
a 112 147
a 112 72
a 112 35
a 112 74
a 112 148
a 112 75
a 112 76
a 112 77
a 112 78
a 112 149
a 112 79
a 112 80
a 112 81
a 112 163
a 112 83
a 112 150
a 112 84
a 112 85
a 112 86
a 112 87
a 112 88
a 112 89
a 112 90
a 112 91
a 112 92
a 112 151
a 112 94
a 112 95
a 112 96
a 112 97
a 112 98
a 112 99
a 112 100
a 112 101
a 112 102
a 112 164
a 112 103
a 112 104
a 112 105
a 112 55
a 112 106
a 112 107
a 112 108
a 112 109
a 112 110
a 112 153
a 112 111
a 112 113
a 112 115
a 112 117
a 112 118
a 112 119
a 112 120
a 112 121
a 112 162
a 112 122
a 112 123
a 112 124
a 112 125
a 112 154
a 112 126
a 112 127
a 112 128
a 112 129
a 112 130
a 112 131
a 112 155
a 112 132
a 112 133
a 112 134
a 112 135
a 112 136
a 112 157
a 112 138
a 112 139
a 112 13
a 112 71
a 112 142
a 112 45
a 112 51
a 112 145
a 112 93
a 112 152
a 112 114
a 112 116
a 112 156
a 112 137
a 112 53
a 113 1
a 113 2
a 113 56
a 113 158
a 113 3
a 113 4
a 113 6
a 113 7
a 113 8
a 113 9
a 113 10
a 113 11
a 113 13
a 113 14
a 113 15
a 113 16
a 113 17
a 113 18
a 113 19
a 113 20
a 113 21
a 113 140
a 113 22
a 113 70
a 113 24
a 113 25
a 113 26
a 113 141
a 113 27
a 113 28
a 113 29
a 113 30
a 113 31
a 113 32
a 113 33
a 113 142
a 113 34
a 113 73
a 113 36
a 113 37
a 113 38
a 113 39
a 113 41
a 113 42
a 113 43
a 113 44
a 113 45
a 113 143
a 113 46
a 113 47
a 113 48
a 113 49
a 113 50
a 113 51
a 113 52
a 113 54
a 113 159
a 113 5
a 113 57
a 113 160
a 113 58
a 113 60
a 113 61
a 113 144
a 113 62
a 113 64
a 113 65
a 113 66
a 113 67
a 113 68
a 113 146
a 113 69
a 113 147
a 113 72
a 113 35
a 113 74
a 113 148
a 113 76
a 113 77
a 113 78
a 113 149
a 113 79
a 113 80
a 113 81
a 113 163
a 113 83
a 113 150
a 113 84
a 113 85
a 113 86
a 113 87
a 113 88
a 113 89
a 113 90
a 113 91
a 113 92
a 113 151
a 113 94
a 113 95
a 113 96
a 113 97
a 113 98
a 113 99
a 113 100
a 113 101
a 113 102
a 113 164
a 113 104
a 113 105
a 113 156
a 113 106
a 113 107
a 113 108
a 113 110
a 113 153
a 113 111
a 113 112
a 113 132
a 113 114
a 113 115
a 113 118
a 113 119
a 113 120
a 113 121
a 113 162
a 113 122
a 113 123
a 113 124
a 113 125
a 113 154
a 113 126
a 113 127
a 113 128
a 113 130
a 113 131
a 113 155
a 113 133
a 113 135
a 113 157
a 113 137
a 113 138
a 113 139
a 113 71
a 113 40
a 113 59
a 113 63
a 113 75
a 113 93
a 113 55
a 113 152
a 113 109
a 113 116
a 113 117
a 113 129
a 113 12
a 113 145
a 113 161
a 113 103
a 113 136
a 113 23
a 113 134
a 113 53
a 113 82
a 114 1
a 114 2
a 114 3
a 114 4
a 114 6
a 114 7
a 114 8
a 114 12
a 114 14
a 114 15
a 114 16
a 114 19
a 114 20
a 114 22
a 114 25
a 114 27
a 114 29
a 114 30
a 114 31
a 114 32
a 114 33
a 114 23
a 114 36
a 114 37
a 114 38
a 114 39
a 114 40
a 114 41
a 114 42
a 114 46
a 114 47
a 114 48
a 114 50
a 114 53
a 114 5
a 114 57
a 114 58
a 114 59
a 114 61
a 114 62
a 114 63
a 114 64
a 114 65
a 114 145
a 114 67
a 114 68
a 114 146
a 114 147
a 114 71
a 114 35
a 114 74
a 114 75
a 114 78
a 114 79
a 114 80
a 114 81
a 114 82
a 114 86
a 114 88
a 114 89
a 114 90
a 114 92
a 114 93
a 114 151
a 114 94
a 114 97
a 114 98
a 114 100
a 114 101
a 114 102
a 114 103
a 114 104
a 114 55
a 114 106
a 114 107
a 114 108
a 114 110
a 114 111
a 114 113
a 114 132
a 114 116
a 114 117
a 114 118
a 114 121
a 114 162
a 114 122
a 114 123
a 114 124
a 114 125
a 114 129
a 114 130
a 114 131
a 114 133
a 114 134
a 114 135
a 114 157
a 114 137
a 114 138
a 114 9
a 114 11
a 114 13
a 114 17
a 114 18
a 114 21
a 114 26
a 114 34
a 114 73
a 114 43
a 114 44
a 114 45
a 114 49
a 114 52
a 114 54
a 114 56
a 114 160
a 114 60
a 114 66
a 114 76
a 114 77
a 114 83
a 114 95
a 114 96
a 114 99
a 114 105
a 114 112
a 114 115
a 114 119
a 114 154
a 114 126
a 114 156
a 114 136
a 114 139
a 114 10
a 114 141
a 114 140
a 114 144
a 114 69
a 114 91
a 114 152
a 114 109
a 114 127
a 114 128
a 114 155
a 114 28
a 114 148
a 114 84
a 114 87
a 114 164
a 114 120
a 114 158
a 114 24
a 114 72
a 114 149
a 114 143
a 114 70
a 114 159
a 114 163
a 114 85
a 114 153
a 114 51
a 114 161
a 114 142
a 115 1
a 115 2
a 115 56
a 115 158
a 115 3
a 115 4
a 115 6
a 115 7
a 115 8
a 115 9
a 115 10
a 115 11
a 115 12
a 115 13
a 115 14
a 115 15
a 115 16
a 115 17
a 115 18
a 115 19
a 115 20
a 115 21
a 115 140
a 115 22
a 115 70
a 115 24
a 115 25
a 115 26
a 115 141
a 115 27
a 115 28
a 115 29
a 115 30
a 115 31
a 115 33
a 115 142
a 115 23
a 115 34
a 115 73
a 115 36
a 115 37
a 115 38
a 115 39
a 115 40
a 115 41
a 115 42
a 115 43
a 115 44
a 115 45
a 115 46
a 115 47
a 115 49
a 115 50
a 115 51
a 115 52
a 115 53
a 115 159
a 115 5
a 115 57
a 115 160
a 115 58
a 115 59
a 115 60
a 115 61
a 115 62
a 115 63
a 115 64
a 115 65
a 115 67
a 115 68
a 115 161
a 115 146
a 115 69
a 115 147
a 115 71
a 115 72
a 115 35
a 115 148
a 115 75
a 115 76
a 115 77
a 115 78
a 115 149
a 115 79
a 115 80
a 115 81
a 115 82
a 115 163
a 115 83
a 115 150
a 115 84
a 115 85
a 115 86
a 115 87
a 115 88
a 115 89
a 115 90
a 115 91
a 115 92
a 115 93
a 115 151
a 115 95
a 115 96
a 115 97
a 115 98
a 115 99
a 115 100
a 115 101
a 115 102
a 115 164
a 115 103
a 115 104
a 115 105
a 115 55
a 115 106
a 115 152
a 115 107
a 115 108
a 115 110
a 115 153
a 115 111
a 115 112
a 115 113
a 115 116
a 115 117
a 115 118
a 115 119
a 115 120
a 115 121
a 115 162
a 115 122
a 115 123
a 115 124
a 115 125
a 115 154
a 115 126
a 115 127
a 115 128
a 115 130
a 115 131
a 115 155
a 115 132
a 115 133
a 115 135
a 115 157
a 115 137
a 115 138
a 115 139
a 115 32
a 115 48
a 115 54
a 115 144
a 115 66
a 115 145
a 115 94
a 115 109
a 115 114
a 115 129
a 115 156
a 115 136
a 115 143
a 115 74
a 115 134
a 116 1
a 116 2
a 116 56
a 116 3
a 116 4
a 116 6
a 116 10
a 116 12
a 116 13
a 116 14
a 116 15
a 116 16
a 116 18
a 116 19
a 116 20
a 116 21
a 116 140
a 116 22
a 116 70
a 116 25
a 116 26
a 116 141
a 116 28
a 116 29
a 116 30
a 116 31
a 116 32
a 116 33
a 116 142
a 116 23
a 116 36
a 116 37
a 116 38
a 116 39
a 116 40
a 116 41
a 116 42
a 116 43
a 116 45
a 116 143
a 116 46
a 116 47
a 116 48
a 116 49
a 116 50
a 116 53
a 116 5
a 116 57
a 116 160
a 116 58
a 116 59
a 116 61
a 116 62
a 116 63
a 116 64
a 116 65
a 116 66
a 116 145
a 116 67
a 116 68
a 116 161
a 116 146
a 116 69
a 116 147
a 116 71
a 116 35
a 116 74
a 116 75
a 116 76
a 116 78
a 116 149
a 116 79
a 116 80
a 116 82
a 116 163
a 116 150
a 116 84
a 116 85
a 116 86
a 116 87
a 116 88
a 116 89
a 116 90
a 116 91
a 116 92
a 116 93
a 116 151
a 116 94
a 116 96
a 116 97
a 116 98
a 116 99
a 116 100
a 116 101
a 116 102
a 116 164
a 116 103
a 116 104
a 116 105
a 116 55
a 116 156
a 116 106
a 116 152
a 116 107
a 116 108
a 116 109
a 116 110
a 116 153
a 116 111
a 116 114
a 116 115
a 116 117
a 116 118
a 116 120
a 116 162
a 116 122
a 116 123
a 116 124
a 116 125
a 116 154
a 116 126
a 116 127
a 116 128
a 116 129
a 116 130
a 116 131
a 116 132
a 116 133
a 116 134
a 116 135
a 116 157
a 116 137
a 116 139
a 116 158
a 116 7
a 116 8
a 116 17
a 116 24
a 116 27
a 116 34
a 116 73
a 116 44
a 116 52
a 116 54
a 116 159
a 116 60
a 116 144
a 116 72
a 116 148
a 116 77
a 116 81
a 116 83
a 116 95
a 116 112
a 116 113
a 116 119
a 116 121
a 116 155
a 116 136
a 116 138
a 116 9
a 116 11
a 116 51
a 117 1
a 117 2
a 117 56
a 117 158
a 117 3
a 117 4
a 117 6
a 117 7
a 117 8
a 117 9
a 117 10
a 117 12
a 117 13
a 117 14
a 117 15
a 117 16
a 117 18
a 117 19
a 117 21
a 117 140
a 117 22
a 117 70
a 117 24
a 117 25
a 117 26
a 117 141
a 117 27
a 117 28
a 117 29
a 117 30
a 117 31
a 117 32
a 117 33
a 117 142
a 117 23
a 117 36
a 117 37
a 117 38
a 117 39
a 117 40
a 117 41
a 117 42
a 117 44
a 117 45
a 117 143
a 117 46
a 117 47
a 117 49
a 117 50
a 117 51
a 117 52
a 117 53
a 117 5
a 117 57
a 117 160
a 117 58
a 117 59
a 117 60
a 117 61
a 117 144
a 117 63
a 117 64
a 117 65
a 117 66
a 117 67
a 117 68
a 117 161
a 117 146
a 117 69
a 117 147
a 117 71
a 117 72
a 117 35
a 117 74
a 117 148
a 117 75
a 117 76
a 117 77
a 117 149
a 117 79
a 117 80
a 117 163
a 117 83
a 117 150
a 117 84
a 117 85
a 117 86
a 117 87
a 117 88
a 117 89
a 117 90
a 117 91
a 117 93
a 117 151
a 117 94
a 117 95
a 117 96
a 117 97
a 117 99
a 117 100
a 117 101
a 117 164
a 117 104
a 117 105
a 117 55
a 117 156
a 117 106
a 117 152
a 117 107
a 117 108
a 117 109
a 117 110
a 117 153
a 117 112
a 117 114
a 117 115
a 117 116
a 117 118
a 117 119
a 117 120
a 117 162
a 117 122
a 117 123
a 117 124
a 117 125
a 117 154
a 117 126
a 117 127
a 117 128
a 117 129
a 117 131
a 117 155
a 117 132
a 117 133
a 117 134
a 117 135
a 117 136
a 117 157
a 117 138
a 117 11
a 117 17
a 117 20
a 117 34
a 117 73
a 117 43
a 117 48
a 117 159
a 117 62
a 117 145
a 117 78
a 117 82
a 117 92
a 117 102
a 117 103
a 117 111
a 117 113
a 117 121
a 117 130
a 117 137
a 117 139
a 117 54
a 117 81
a 117 98
a 118 1
a 118 2
a 118 56
a 118 158
a 118 3
a 118 4
a 118 6
a 118 7
a 118 8
a 118 9
a 118 10
a 118 11
a 118 12
a 118 13
a 118 14
a 118 15
a 118 16
a 118 18
a 118 19
a 118 20
a 118 21
a 118 140
a 118 22
a 118 70
a 118 24
a 118 25
a 118 26
a 118 141
a 118 27
a 118 28
a 118 29
a 118 30
a 118 31
a 118 32
a 118 33
a 118 23
a 118 34
a 118 73
a 118 36
a 118 37
a 118 38
a 118 39
a 118 40
a 118 41
a 118 42
a 118 43
a 118 44
a 118 45
a 118 143
a 118 46
a 118 47
a 118 48
a 118 49
a 118 50
a 118 52
a 118 53
a 118 54
a 118 159
a 118 5
a 118 57
a 118 160
a 118 59
a 118 60
a 118 61
a 118 144
a 118 62
a 118 63
a 118 64
a 118 65
a 118 67
a 118 68
a 118 161
a 118 146
a 118 69
a 118 147
a 118 71
a 118 72
a 118 35
a 118 74
a 118 148
a 118 75
a 118 77
a 118 78
a 118 149
a 118 79
a 118 80
a 118 81
a 118 82
a 118 163
a 118 83
a 118 150
a 118 84
a 118 85
a 118 86
a 118 87
a 118 88
a 118 89
a 118 90
a 118 91
a 118 92
a 118 93
a 118 151
a 118 94
a 118 95
a 118 96
a 118 97
a 118 99
a 118 100
a 118 101
a 118 102
a 118 164
a 118 103
a 118 104
a 118 105
a 118 156
a 118 106
a 118 152
a 118 107
a 118 108
a 118 109
a 118 110
a 118 153
a 118 111
a 118 112
a 118 113
a 118 114
a 118 115
a 118 116
a 118 117
a 118 119
a 118 120
a 118 121
a 118 162
a 118 122
a 118 124
a 118 125
a 118 154
a 118 126
a 118 127
a 118 130
a 118 131
a 118 132
a 118 133
a 118 134
a 118 135
a 118 136
a 118 157
a 118 137
a 118 138
a 118 139
a 118 17
a 118 58
a 118 66
a 118 145
a 118 76
a 118 98
a 118 55
a 118 123
a 118 128
a 118 129
a 118 155
a 118 142
a 118 51
a 119 1
a 119 2
a 119 56
a 119 158
a 119 3
a 119 4
a 119 6
a 119 7
a 119 8
a 119 9
a 119 10
a 119 11
a 119 12
a 119 13
a 119 14
a 119 15
a 119 16
a 119 18
a 119 19
a 119 20
a 119 21
a 119 22
a 119 70
a 119 24
a 119 25
a 119 26
a 119 141
a 119 27
a 119 28
a 119 29
a 119 30
a 119 31
a 119 32
a 119 33
a 119 142
a 119 23
a 119 34
a 119 73
a 119 36
a 119 37
a 119 38
a 119 39
a 119 40
a 119 41
a 119 42
a 119 43
a 119 44
a 119 45
a 119 143
a 119 46
a 119 47
a 119 48
a 119 49
a 119 50
a 119 51
a 119 52
a 119 53
a 119 54
a 119 159
a 119 5
a 119 57
a 119 160
a 119 58
a 119 59
a 119 60
a 119 61
a 119 144
a 119 62
a 119 64
a 119 65
a 119 66
a 119 67
a 119 68
a 119 161
a 119 146
a 119 69
a 119 147
a 119 71
a 119 72
a 119 35
a 119 74
a 119 148
a 119 75
a 119 76
a 119 77
a 119 149
a 119 79
a 119 80
a 119 163
a 119 83
a 119 150
a 119 84
a 119 85
a 119 86
a 119 87
a 119 88
a 119 89
a 119 90
a 119 91
a 119 92
a 119 93
a 119 151
a 119 94
a 119 95
a 119 96
a 119 97
a 119 98
a 119 99
a 119 100
a 119 101
a 119 102
a 119 164
a 119 103
a 119 104
a 119 105
a 119 55
a 119 156
a 119 106
a 119 152
a 119 107
a 119 108
a 119 110
a 119 153
a 119 111
a 119 112
a 119 113
a 119 115
a 119 117
a 119 118
a 119 120
a 119 121
a 119 162
a 119 122
a 119 123
a 119 124
a 119 125
a 119 154
a 119 127
a 119 128
a 119 129
a 119 131
a 119 132
a 119 133
a 119 135
a 119 136
a 119 157
a 119 137
a 119 138
a 119 139
a 119 17
a 119 140
a 119 63
a 119 145
a 119 78
a 119 109
a 119 114
a 119 116
a 119 130
a 119 155
a 119 126
a 119 134
a 119 81
a 119 82
a 120 1
a 120 2
a 120 56
a 120 3
a 120 4
a 120 6
a 120 7
a 120 8
a 120 9
a 120 10
a 120 11
a 120 13
a 120 14
a 120 15
a 120 18
a 120 19
a 120 20
a 120 21
a 120 140
a 120 22
a 120 70
a 120 24
a 120 25
a 120 26
a 120 141
a 120 27
a 120 28
a 120 29
a 120 30
a 120 31
a 120 33
a 120 142
a 120 23
a 120 34
a 120 73
a 120 36
a 120 37
a 120 38
a 120 39
a 120 41
a 120 42
a 120 44
a 120 45
a 120 143
a 120 46
a 120 47
a 120 48
a 120 49
a 120 50
a 120 51
a 120 52
a 120 54
a 120 159
a 120 5
a 120 57
a 120 160
a 120 58
a 120 59
a 120 60
a 120 61
a 120 64
a 120 65
a 120 66
a 120 67
a 120 68
a 120 161
a 120 146
a 120 69
a 120 147
a 120 71
a 120 72
a 120 35
a 120 74
a 120 148
a 120 76
a 120 77
a 120 78
a 120 149
a 120 79
a 120 163
a 120 83
a 120 150
a 120 84
a 120 85
a 120 86
a 120 87
a 120 88
a 120 89
a 120 90
a 120 91
a 120 92
a 120 93
a 120 151
a 120 94
a 120 95
a 120 96
a 120 97
a 120 98
a 120 99
a 120 100
a 120 101
a 120 102
a 120 164
a 120 104
a 120 105
a 120 55
a 120 156
a 120 106
a 120 152
a 120 107
a 120 108
a 120 109
a 120 110
a 120 153
a 120 112
a 120 113
a 120 115
a 120 116
a 120 117
a 120 118
a 120 119
a 120 132
a 120 121
a 120 162
a 120 122
a 120 123
a 120 124
a 120 154
a 120 126
a 120 127
a 120 128
a 120 129
a 120 130
a 120 131
a 120 155
a 120 133
a 120 134
a 120 135
a 120 157
a 120 137
a 120 138
a 120 158
a 120 12
a 120 16
a 120 144
a 120 75
a 120 111
a 120 32
a 120 139
a 120 17
a 120 43
a 120 103
a 120 114
a 120 125
a 120 81
a 120 63
a 120 40
a 120 80
a 120 62
a 120 53
a 120 82
a 121 1
a 121 2
a 121 56
a 121 4
a 121 6
a 121 7
a 121 8
a 121 9
a 121 10
a 121 11
a 121 12
a 121 14
a 121 15
a 121 16
a 121 17
a 121 18
a 121 19
a 121 20
a 121 22
a 121 70
a 121 24
a 121 25
a 121 26
a 121 27
a 121 29
a 121 30
a 121 31
a 121 33
a 121 23
a 121 34
a 121 73
a 121 36
a 121 37
a 121 38
a 121 39
a 121 40
a 121 41
a 121 43
a 121 44
a 121 46
a 121 48
a 121 49
a 121 50
a 121 51
a 121 52
a 121 53
a 121 54
a 121 159
a 121 57
a 121 160
a 121 58
a 121 59
a 121 60
a 121 61
a 121 62
a 121 63
a 121 64
a 121 65
a 121 66
a 121 67
a 121 68
a 121 146
a 121 69
a 121 147
a 121 71
a 121 72
a 121 35
a 121 74
a 121 148
a 121 75
a 121 77
a 121 78
a 121 149
a 121 79
a 121 80
a 121 81
a 121 82
a 121 83
a 121 150
a 121 84
a 121 85
a 121 86
a 121 87
a 121 88
a 121 89
a 121 90
a 121 91
a 121 92
a 121 93
a 121 94
a 121 95
a 121 96
a 121 97
a 121 98
a 121 100
a 121 101
a 121 102
a 121 103
a 121 104
a 121 105
a 121 55
a 121 106
a 121 107
a 121 108
a 121 109
a 121 110
a 121 153
a 121 111
a 121 112
a 121 113
a 121 114
a 121 115
a 121 118
a 121 119
a 121 120
a 121 122
a 121 123
a 121 124
a 121 125
a 121 154
a 121 126
a 121 127
a 121 129
a 121 130
a 121 131
a 121 132
a 121 133
a 121 134
a 121 135
a 121 136
a 121 157
a 121 137
a 121 138
a 121 139
a 121 5
a 121 13
a 121 21
a 121 141
a 121 32
a 121 42
a 121 45
a 121 47
a 121 144
a 121 145
a 121 76
a 121 151
a 121 99
a 121 152
a 121 116
a 121 117
a 121 128
a 121 3
a 121 28
a 121 164
a 121 156
a 121 155
a 121 158
a 121 140
a 121 143
a 121 161
a 121 162
a 121 142
a 121 163
a 122 1
a 122 2
a 122 56
a 122 158
a 122 3
a 122 4
a 122 6
a 122 7
a 122 8
a 122 9
a 122 10
a 122 11
a 122 12
a 122 13
a 122 14
a 122 15
a 122 16
a 122 17
a 122 18
a 122 19
a 122 20
a 122 21
a 122 140
a 122 22
a 122 70
a 122 24
a 122 25
a 122 26
a 122 141
a 122 27
a 122 28
a 122 29
a 122 30
a 122 31
a 122 32
a 122 33
a 122 142
a 122 23
a 122 34
a 122 73
a 122 36
a 122 37
a 122 38
a 122 39
a 122 40
a 122 41
a 122 42
a 122 43
a 122 44
a 122 45
a 122 143
a 122 46
a 122 47
a 122 48
a 122 49
a 122 50
a 122 51
a 122 52
a 122 54
a 122 159
a 122 5
a 122 57
a 122 160
a 122 58
a 122 59
a 122 60
a 122 61
a 122 144
a 122 62
a 122 63
a 122 64
a 122 65
a 122 66
a 122 67
a 122 68
a 122 146
a 122 69
a 122 147
a 122 71
a 122 72
a 122 35
a 122 74
a 122 148
a 122 75
a 122 76
a 122 77
a 122 78
a 122 149
a 122 79
a 122 80
a 122 81
a 122 82
a 122 163
a 122 83
a 122 150
a 122 84
a 122 85
a 122 86
a 122 87
a 122 88
a 122 89
a 122 90
a 122 91
a 122 92
a 122 93
a 122 151
a 122 94
a 122 95
a 122 96
a 122 97
a 122 98
a 122 99
a 122 100
a 122 101
a 122 102
a 122 164
a 122 103
a 122 104
a 122 105
a 122 55
a 122 156
a 122 106
a 122 152
a 122 107
a 122 108
a 122 109
a 122 110
a 122 153
a 122 111
a 122 112
a 122 113
a 122 114
a 122 115
a 122 116
a 122 117
a 122 118
a 122 119
a 122 120
a 122 121
a 122 162
a 122 123
a 122 124
a 122 125
a 122 154
a 122 126
a 122 127
a 122 128
a 122 129
a 122 130
a 122 131
a 122 155
a 122 132
a 122 133
a 122 134
a 122 135
a 122 136
a 122 157
a 122 137
a 122 138
a 122 139
a 122 53
a 122 145
a 122 161
a 123 1
a 123 2
a 123 56
a 123 158
a 123 3
a 123 4
a 123 6
a 123 7
a 123 8
a 123 9
a 123 10
a 123 11
a 123 12
a 123 13
a 123 14
a 123 15
a 123 16
a 123 17
a 123 18
a 123 19
a 123 20
a 123 21
a 123 22
a 123 70
a 123 24
a 123 25
a 123 26
a 123 141
a 123 27
a 123 28
a 123 29
a 123 30
a 123 31
a 123 32
a 123 33
a 123 23
a 123 34
a 123 73
a 123 36
a 123 37
a 123 38
a 123 39
a 123 40
a 123 41
a 123 43
a 123 44
a 123 46
a 123 47
a 123 48
a 123 49
a 123 50
a 123 51
a 123 52
a 123 54
a 123 159
a 123 5
a 123 57
a 123 160
a 123 58
a 123 59
a 123 60
a 123 61
a 123 144
a 123 62
a 123 63
a 123 64
a 123 65
a 123 66
a 123 145
a 123 67
a 123 68
a 123 161
a 123 146
a 123 69
a 123 147
a 123 71
a 123 72
a 123 35
a 123 74
a 123 148
a 123 75
a 123 77
a 123 78
a 123 149
a 123 79
a 123 80
a 123 81
a 123 82
a 123 163
a 123 83
a 123 150
a 123 84
a 123 85
a 123 86
a 123 87
a 123 88
a 123 89
a 123 90
a 123 91
a 123 92
a 123 93
a 123 151
a 123 95
a 123 96
a 123 97
a 123 98
a 123 99
a 123 100
a 123 101
a 123 102
a 123 164
a 123 103
a 123 104
a 123 105
a 123 55
a 123 156
a 123 106
a 123 152
a 123 107
a 123 108
a 123 109
a 123 110
a 123 153
a 123 111
a 123 112
a 123 113
a 123 114
a 123 115
a 123 116
a 123 117
a 123 119
a 123 120
a 123 121
a 123 122
a 123 124
a 123 125
a 123 154
a 123 126
a 123 127
a 123 128
a 123 129
a 123 130
a 123 131
a 123 132
a 123 135
a 123 157
a 123 137
a 123 138
a 123 139
a 123 142
a 123 42
a 123 45
a 123 76
a 123 118
a 123 155
a 123 136
a 123 140
a 123 94
a 123 133
a 123 143
a 123 53
a 123 162
a 123 134
a 124 1
a 124 3
a 124 4
a 124 6
a 124 7
a 124 8
a 124 9
a 124 10
a 124 11
a 124 12
a 124 14
a 124 15
a 124 16
a 124 17
a 124 18
a 124 19
a 124 20
a 124 21
a 124 22
a 124 70
a 124 25
a 124 26
a 124 141
a 124 27
a 124 29
a 124 30
a 124 31
a 124 32
a 124 33
a 124 23
a 124 34
a 124 73
a 124 36
a 124 37
a 124 38
a 124 39
a 124 40
a 124 41
a 124 43
a 124 44
a 124 46
a 124 47
a 124 48
a 124 49
a 124 50
a 124 51
a 124 52
a 124 53
a 124 54
a 124 5
a 124 57
a 124 58
a 124 59
a 124 60
a 124 61
a 124 62
a 124 63
a 124 64
a 124 65
a 124 66
a 124 145
a 124 67
a 124 68
a 124 161
a 124 146
a 124 147
a 124 71
a 124 72
a 124 35
a 124 75
a 124 76
a 124 77
a 124 78
a 124 79
a 124 80
a 124 81
a 124 82
a 124 163
a 124 83
a 124 150
a 124 84
a 124 85
a 124 86
a 124 87
a 124 89
a 124 90
a 124 91
a 124 92
a 124 93
a 124 94
a 124 95
a 124 96
a 124 97
a 124 98
a 124 99
a 124 100
a 124 102
a 124 103
a 124 104
a 124 55
a 124 156
a 124 106
a 124 107
a 124 108
a 124 109
a 124 110
a 124 153
a 124 111
a 124 112
a 124 113
a 124 114
a 124 115
a 124 116
a 124 117
a 124 118
a 124 119
a 124 120
a 124 121
a 124 162
a 124 122
a 124 123
a 124 132
a 124 125
a 124 154
a 124 126
a 124 127
a 124 128
a 124 129
a 124 130
a 124 131
a 124 134
a 124 135
a 124 136
a 124 137
a 124 138
a 124 139
a 124 158
a 124 24
a 124 42
a 124 143
a 124 56
a 124 160
a 124 144
a 124 69
a 124 28
a 124 74
a 124 148
a 124 149
a 124 88
a 124 101
a 124 164
a 124 105
a 124 133
a 124 2
a 124 151
a 124 157
a 124 13
a 124 155
a 124 140
a 124 45
a 124 152
a 124 142
a 124 159
a 125 1
a 125 56
a 125 3
a 125 4
a 125 6
a 125 7
a 125 8
a 125 9
a 125 10
a 125 11
a 125 12
a 125 14
a 125 15
a 125 16
a 125 17
a 125 19
a 125 20
a 125 22
a 125 25
a 125 26
a 125 27
a 125 28
a 125 30
a 125 31
a 125 32
a 125 33
a 125 23
a 125 34
a 125 73
a 125 36
a 125 37
a 125 38
a 125 39
a 125 40
a 125 41
a 125 42
a 125 43
a 125 44
a 125 46
a 125 47
a 125 48
a 125 49
a 125 50
a 125 52
a 125 53
a 125 54
a 125 5
a 125 57
a 125 160
a 125 58
a 125 59
a 125 60
a 125 61
a 125 62
a 125 63
a 125 64
a 125 65
a 125 66
a 125 68
a 125 69
a 125 147
a 125 71
a 125 72
a 125 35
a 125 75
a 125 76
a 125 77
a 125 78
a 125 149
a 125 79
a 125 80
a 125 81
a 125 82
a 125 163
a 125 83
a 125 150
a 125 84
a 125 87
a 125 88
a 125 89
a 125 90
a 125 91
a 125 92
a 125 93
a 125 94
a 125 95
a 125 96
a 125 98
a 125 100
a 125 101
a 125 102
a 125 103
a 125 104
a 125 55
a 125 106
a 125 107
a 125 108
a 125 110
a 125 153
a 125 111
a 125 112
a 125 113
a 125 114
a 125 115
a 125 116
a 125 117
a 125 118
a 125 119
a 125 121
a 125 162
a 125 122
a 125 123
a 125 124
a 125 154
a 125 126
a 125 127
a 125 129
a 125 130
a 125 132
a 125 133
a 125 134
a 125 135
a 125 136
a 125 137
a 125 138
a 125 139
a 125 18
a 125 70
a 125 141
a 125 29
a 125 45
a 125 144
a 125 145
a 125 67
a 125 146
a 125 74
a 125 148
a 125 85
a 125 86
a 125 151
a 125 97
a 125 164
a 125 152
a 125 128
a 125 131
a 125 156
a 125 2
a 125 13
a 125 140
a 125 24
a 125 21
a 125 159
a 125 99
a 125 105
a 125 109
a 125 161
a 125 120
a 125 155
a 125 158
a 125 143
a 125 157
a 125 51
a 125 142
a 126 1
a 126 2
a 126 56
a 126 158
a 126 3
a 126 4
a 126 6
a 126 7
a 126 8
a 126 9
a 126 10
a 126 11
a 126 12
a 126 14
a 126 15
a 126 16
a 126 17
a 126 18
a 126 19
a 126 20
a 126 22
a 126 70
a 126 24
a 126 25
a 126 26
a 126 28
a 126 29
a 126 30
a 126 31
a 126 33
a 126 23
a 126 34
a 126 73
a 126 36
a 126 37
a 126 38
a 126 39
a 126 40
a 126 41
a 126 42
a 126 43
a 126 45
a 126 48
a 126 49
a 126 50
a 126 52
a 126 53
a 126 54
a 126 159
a 126 5
a 126 57
a 126 58
a 126 59
a 126 60
a 126 61
a 126 62
a 126 63
a 126 64
a 126 65
a 126 66
a 126 67
a 126 68
a 126 146
a 126 69
a 126 147
a 126 71
a 126 72
a 126 35
a 126 74
a 126 75
a 126 77
a 126 78
a 126 149
a 126 79
a 126 80
a 126 81
a 126 82
a 126 163
a 126 83
a 126 150
a 126 84
a 126 85
a 126 86
a 126 87
a 126 88
a 126 89
a 126 90
a 126 91
a 126 92
a 126 93
a 126 151
a 126 95
a 126 98
a 126 99
a 126 100
a 126 101
a 126 102
a 126 164
a 126 103
a 126 104
a 126 55
a 126 106
a 126 152
a 126 107
a 126 108
a 126 109
a 126 110
a 126 153
a 126 111
a 126 112
a 126 113
a 126 115
a 126 116
a 126 117
a 126 118
a 126 120
a 126 121
a 126 162
a 126 122
a 126 123
a 126 124
a 126 125
a 126 127
a 126 129
a 126 130
a 126 132
a 126 133
a 126 134
a 126 135
a 126 136
a 126 137
a 126 138
a 126 139
a 126 13
a 126 140
a 126 32
a 126 142
a 126 44
a 126 46
a 126 47
a 126 145
a 126 148
a 126 76
a 126 96
a 126 105
a 126 114
a 126 128
a 126 131
a 126 155
a 126 156
a 126 157
a 126 27
a 126 160
a 126 144
a 126 94
a 126 97
a 126 119
a 126 154
a 126 141
a 126 51
a 126 143
a 126 21
a 126 161
a 127 1
a 127 2
a 127 56
a 127 158
a 127 3
a 127 4
a 127 7
a 127 8
a 127 9
a 127 10
a 127 11
a 127 13
a 127 14
a 127 15
a 127 16
a 127 18
a 127 19
a 127 20
a 127 21
a 127 140
a 127 22
a 127 70
a 127 24
a 127 25
a 127 26
a 127 141
a 127 27
a 127 28
a 127 29
a 127 30
a 127 31
a 127 33
a 127 142
a 127 23
a 127 34
a 127 73
a 127 36
a 127 37
a 127 38
a 127 39
a 127 41
a 127 42
a 127 43
a 127 44
a 127 45
a 127 143
a 127 46
a 127 47
a 127 48
a 127 49
a 127 50
a 127 51
a 127 52
a 127 54
a 127 159
a 127 5
a 127 57
a 127 160
a 127 58
a 127 60
a 127 61
a 127 144
a 127 63
a 127 64
a 127 65
a 127 66
a 127 67
a 127 68
a 127 161
a 127 146
a 127 69
a 127 147
a 127 72
a 127 35
a 127 74
a 127 148
a 127 75
a 127 76
a 127 77
a 127 149
a 127 79
a 127 163
a 127 83
a 127 150
a 127 84
a 127 85
a 127 86
a 127 87
a 127 88
a 127 89
a 127 90
a 127 91
a 127 92
a 127 93
a 127 151
a 127 94
a 127 95
a 127 96
a 127 97
a 127 98
a 127 99
a 127 100
a 127 101
a 127 102
a 127 164
a 127 104
a 127 105
a 127 55
a 127 156
a 127 106
a 127 152
a 127 107
a 127 108
a 127 109
a 127 110
a 127 153
a 127 111
a 127 112
a 127 113
a 127 115
a 127 116
a 127 117
a 127 118
a 127 119
a 127 120
a 127 121
a 127 162
a 127 122
a 127 123
a 127 124
a 127 125
a 127 154
a 127 126
a 127 128
a 127 131
a 127 155
a 127 132
a 127 133
a 127 135
a 127 157
a 127 137
a 127 138
a 127 139
a 127 32
a 127 62
a 127 78
a 127 103
a 127 114
a 127 129
a 127 40
a 127 81
a 127 6
a 127 12
a 127 17
a 127 80
a 127 71
a 127 134
a 127 53
a 127 145
a 127 82
a 128 1
a 128 2
a 128 56
a 128 158
a 128 3
a 128 7
a 128 8
a 128 10
a 128 12
a 128 13
a 128 15
a 128 19
a 128 21
a 128 140
a 128 22
a 128 70
a 128 24
a 128 25
a 128 141
a 128 27
a 128 28
a 128 29
a 128 32
a 128 33
a 128 142
a 128 34
a 128 36
a 128 37
a 128 39
a 128 41
a 128 42
a 128 44
a 128 45
a 128 143
a 128 46
a 128 47
a 128 49
a 128 50
a 128 51
a 128 52
a 128 54
a 128 159
a 128 57
a 128 160
a 128 58
a 128 59
a 128 60
a 128 61
a 128 144
a 128 63
a 128 64
a 128 66
a 128 68
a 128 161
a 128 146
a 128 69
a 128 147
a 128 72
a 128 35
a 128 74
a 128 148
a 128 75
a 128 76
a 128 77
a 128 149
a 128 163
a 128 83
a 128 150
a 128 84
a 128 85
a 128 86
a 128 88
a 128 90
a 128 91
a 128 92
a 128 93
a 128 151
a 128 94
a 128 95
a 128 96
a 128 97
a 128 98
a 128 99
a 128 100
a 128 101
a 128 164
a 128 103
a 128 104
a 128 105
a 128 55
a 128 156
a 128 106
a 128 152
a 128 108
a 128 109
a 128 110
a 128 153
a 128 112
a 128 113
a 128 115
a 128 116
a 128 117
a 128 119
a 128 120
a 128 162
a 128 122
a 128 123
a 128 124
a 128 154
a 128 127
a 128 131
a 128 155
a 128 133
a 128 135
a 128 157
a 128 138
a 128 5
a 128 6
a 128 9
a 128 11
a 128 14
a 128 16
a 128 17
a 128 18
a 128 20
a 128 26
a 128 71
a 128 30
a 128 31
a 128 23
a 128 73
a 128 38
a 128 40
a 128 43
a 128 53
a 128 62
a 128 65
a 128 145
a 128 78
a 128 80
a 128 81
a 128 87
a 128 89
a 128 102
a 128 107
a 128 111
a 128 118
a 128 121
a 128 125
a 128 126
a 128 129
a 128 137
a 128 139
a 128 4
a 128 48
a 128 67
a 128 79
a 128 114
a 128 132
a 128 130
a 128 82
a 129 1
a 129 4
a 129 6
a 129 7
a 129 9
a 129 11
a 129 12
a 129 14
a 129 15
a 129 16
a 129 17
a 129 18
a 129 19
a 129 20
a 129 22
a 129 25
a 129 26
a 129 27
a 129 28
a 129 29
a 129 30
a 129 31
a 129 32
a 129 33
a 129 23
a 129 36
a 129 37
a 129 38
a 129 39
a 129 40
a 129 41
a 129 42
a 129 43
a 129 47
a 129 48
a 129 50
a 129 52
a 129 53
a 129 54
a 129 5
a 129 57
a 129 59
a 129 60
a 129 61
a 129 62
a 129 63
a 129 64
a 129 65
a 129 145
a 129 71
a 129 35
a 129 77
a 129 78
a 129 79
a 129 80
a 129 81
a 129 82
a 129 83
a 129 84
a 129 85
a 129 87
a 129 89
a 129 90
a 129 92
a 129 93
a 129 151
a 129 94
a 129 96
a 129 98
a 129 99
a 129 100
a 129 101
a 129 102
a 129 103
a 129 104
a 129 55
a 129 106
a 129 107
a 129 109
a 129 110
a 129 111
a 129 112
a 129 114
a 129 116
a 129 117
a 129 119
a 129 120
a 129 121
a 129 122
a 129 123
a 129 124
a 129 125
a 129 154
a 129 126
a 129 132
a 129 130
a 129 131
a 129 134
a 129 135
a 129 136
a 129 137
a 129 139
a 129 8
a 129 70
a 129 73
a 129 44
a 129 45
a 129 147
a 129 148
a 129 76
a 129 95
a 129 97
a 129 113
a 129 115
a 129 118
a 129 128
a 129 56
a 129 74
a 129 75
a 129 86
a 129 127
a 129 138
a 129 10
a 129 160
a 129 144
a 129 66
a 129 68
a 129 88
a 129 108
a 129 162
a 129 24
a 129 49
a 129 58
a 129 67
a 129 34
a 129 69
a 129 155
a 129 158
a 129 146
a 129 2
a 129 46
a 129 72
a 129 91
a 129 105
a 129 163
a 129 21
a 129 51
a 129 141
a 129 156
a 129 142
a 129 133
a 129 3
a 129 159
a 129 149
a 129 153
a 129 13
a 129 150
a 130 1
a 130 3
a 130 4
a 130 6
a 130 7
a 130 9
a 130 11
a 130 12
a 130 14
a 130 16
a 130 17
a 130 19
a 130 20
a 130 22
a 130 25
a 130 26
a 130 29
a 130 30
a 130 31
a 130 32
a 130 33
a 130 23
a 130 73
a 130 36
a 130 37
a 130 38
a 130 39
a 130 40
a 130 41
a 130 43
a 130 47
a 130 48
a 130 51
a 130 52
a 130 53
a 130 54
a 130 5
a 130 57
a 130 59
a 130 60
a 130 61
a 130 62
a 130 63
a 130 64
a 130 65
a 130 66
a 130 145
a 130 69
a 130 147
a 130 71
a 130 148
a 130 77
a 130 78
a 130 149
a 130 79
a 130 80
a 130 81
a 130 82
a 130 87
a 130 88
a 130 89
a 130 90
a 130 91
a 130 92
a 130 93
a 130 94
a 130 96
a 130 97
a 130 98
a 130 99
a 130 100
a 130 102
a 130 164
a 130 103
a 130 104
a 130 55
a 130 107
a 130 110
a 130 111
a 130 112
a 130 113
a 130 114
a 130 115
a 130 116
a 130 118
a 130 120
a 130 121
a 130 122
a 130 123
a 130 124
a 130 125
a 130 126
a 130 129
a 130 132
a 130 133
a 130 134
a 130 135
a 130 136
a 130 137
a 130 138
a 130 139
a 130 8
a 130 21
a 130 44
a 130 58
a 130 144
a 130 67
a 130 106
a 130 108
a 130 117
a 130 119
a 130 154
a 130 56
a 130 10
a 130 24
a 130 27
a 130 142
a 130 42
a 130 49
a 130 160
a 130 68
a 130 146
a 130 35
a 130 74
a 130 75
a 130 85
a 130 95
a 130 86
a 130 15
a 130 83
a 130 128
a 130 34
a 130 50
a 130 105
a 130 109
a 130 153
a 130 2
a 130 18
a 130 161
a 130 155
a 130 13
a 130 162
a 130 84
a 130 70
a 130 76
a 131 1
a 131 2
a 131 56
a 131 158
a 131 3
a 131 4
a 131 6
a 131 7
a 131 8
a 131 9
a 131 10
a 131 11
a 131 12
a 131 13
a 131 14
a 131 15
a 131 16
a 131 18
a 131 19
a 131 20
a 131 21
a 131 140
a 131 22
a 131 70
a 131 24
a 131 25
a 131 26
a 131 141
a 131 27
a 131 28
a 131 29
a 131 31
a 131 32
a 131 33
a 131 142
a 131 73
a 131 36
a 131 37
a 131 38
a 131 39
a 131 40
a 131 41
a 131 42
a 131 43
a 131 44
a 131 45
a 131 143
a 131 46
a 131 47
a 131 48
a 131 49
a 131 50
a 131 51
a 131 52
a 131 54
a 131 159
a 131 5
a 131 57
a 131 160
a 131 58
a 131 60
a 131 61
a 131 144
a 131 62
a 131 64
a 131 66
a 131 67
a 131 68
a 131 161
a 131 146
a 131 69
a 131 147
a 131 72
a 131 35
a 131 74
a 131 148
a 131 75
a 131 76
a 131 77
a 131 78
a 131 149
a 131 79
a 131 80
a 131 81
a 131 163
a 131 83
a 131 150
a 131 84
a 131 85
a 131 86
a 131 87
a 131 88
a 131 89
a 131 90
a 131 91
a 131 92
a 131 93
a 131 151
a 131 94
a 131 95
a 131 96
a 131 97
a 131 99
a 131 100
a 131 164
a 131 103
a 131 104
a 131 105
a 131 55
a 131 156
a 131 106
a 131 152
a 131 107
a 131 108
a 131 110
a 131 153
a 131 112
a 131 113
a 131 114
a 131 115
a 131 116
a 131 117
a 131 118
a 131 119
a 131 120
a 131 121
a 131 162
a 131 122
a 131 123
a 131 124
a 131 154
a 131 127
a 131 128
a 131 129
a 131 132
a 131 155
a 131 133
a 131 134
a 131 135
a 131 157
a 131 138
a 131 139
a 131 17
a 131 71
a 131 34
a 131 65
a 131 101
a 131 109
a 131 111
a 131 125
a 131 126
a 131 137
a 131 30
a 131 23
a 131 63
a 131 98
a 131 53
a 131 102
a 131 82
a 132 1
a 132 2
a 132 3
a 132 4
a 132 6
a 132 7
a 132 8
a 132 9
a 132 10
a 132 11
a 132 12
a 132 13
a 132 14
a 132 15
a 132 16
a 132 17
a 132 18
a 132 19
a 132 20
a 132 21
a 132 22
a 132 70
a 132 24
a 132 25
a 132 26
a 132 141
a 132 28
a 132 29
a 132 30
a 132 31
a 132 32
a 132 33
a 132 23
a 132 34
a 132 73
a 132 36
a 132 37
a 132 38
a 132 39
a 132 40
a 132 41
a 132 42
a 132 43
a 132 44
a 132 45
a 132 46
a 132 47
a 132 48
a 132 49
a 132 50
a 132 52
a 132 53
a 132 5
a 132 57
a 132 58
a 132 59
a 132 60
a 132 61
a 132 62
a 132 63
a 132 64
a 132 65
a 132 66
a 132 145
a 132 67
a 132 68
a 132 161
a 132 146
a 132 69
a 132 147
a 132 71
a 132 72
a 132 35
a 132 74
a 132 148
a 132 75
a 132 76
a 132 77
a 132 78
a 132 149
a 132 79
a 132 80
a 132 81
a 132 82
a 132 150
a 132 84
a 132 85
a 132 86
a 132 87
a 132 89
a 132 90
a 132 91
a 132 92
a 132 93
a 132 151
a 132 94
a 132 95
a 132 96
a 132 97
a 132 98
a 132 99
a 132 100
a 132 102
a 132 164
a 132 103
a 132 104
a 132 105
a 132 55
a 132 106
a 132 152
a 132 107
a 132 108
a 132 110
a 132 153
a 132 111
a 132 112
a 132 113
a 132 114
a 132 115
a 132 116
a 132 117
a 132 118
a 132 119
a 132 120
a 132 121
a 132 122
a 132 123
a 132 124
a 132 125
a 132 154
a 132 126
a 132 127
a 132 129
a 132 130
a 132 131
a 132 155
a 132 133
a 132 134
a 132 135
a 132 136
a 132 137
a 132 138
a 132 139
a 132 27
a 132 54
a 132 56
a 132 160
a 132 144
a 132 83
a 132 88
a 132 162
a 132 158
a 132 140
a 132 142
a 132 51
a 132 159
a 132 163
a 132 101
a 132 156
a 132 109
a 132 128
a 132 157
a 132 143
a 133 1
a 133 2
a 133 56
a 133 158
a 133 3
a 133 4
a 133 6
a 133 7
a 133 8
a 133 9
a 133 10
a 133 11
a 133 12
a 133 13
a 133 15
a 133 16
a 133 18
a 133 19
a 133 20
a 133 21
a 133 140
a 133 22
a 133 70
a 133 25
a 133 26
a 133 141
a 133 27
a 133 28
a 133 29
a 133 30
a 133 31
a 133 32
a 133 33
a 133 142
a 133 23
a 133 34
a 133 73
a 133 36
a 133 37
a 133 38
a 133 39
a 133 41
a 133 42
a 133 43
a 133 44
a 133 45
a 133 143
a 133 46
a 133 47
a 133 48
a 133 49
a 133 50
a 133 51
a 133 52
a 133 53
a 133 54
a 133 159
a 133 5
a 133 57
a 133 160
a 133 58
a 133 60
a 133 61
a 133 144
a 133 62
a 133 63
a 133 64
a 133 65
a 133 66
a 133 67
a 133 68
a 133 161
a 133 146
a 133 69
a 133 147
a 133 72
a 133 35
a 133 74
a 133 148
a 133 75
a 133 76
a 133 77
a 133 149
a 133 79
a 133 80
a 133 81
a 133 82
a 133 163
a 133 83
a 133 150
a 133 84
a 133 85
a 133 86
a 133 87
a 133 88
a 133 89
a 133 93
a 133 151
a 133 94
a 133 95
a 133 96
a 133 97
a 133 99
a 133 100
a 133 101
a 133 164
a 133 103
a 133 104
a 133 105
a 133 55
a 133 156
a 133 106
a 133 152
a 133 107
a 133 108
a 133 109
a 133 110
a 133 153
a 133 112
a 133 113
a 133 114
a 133 115
a 133 116
a 133 117
a 133 118
a 133 119
a 133 120
a 133 121
a 133 162
a 133 122
a 133 125
a 133 154
a 133 126
a 133 127
a 133 128
a 133 130
a 133 131
a 133 155
a 133 132
a 133 135
a 133 157
a 133 137
a 133 138
a 133 14
a 133 24
a 133 71
a 133 40
a 133 59
a 133 91
a 133 102
a 133 124
a 133 139
a 133 123
a 133 78
a 133 90
a 133 98
a 133 111
a 133 136
a 133 17
a 133 92
a 133 134
a 133 145
a 133 129
a 134 1
a 134 4
a 134 6
a 134 12
a 134 14
a 134 16
a 134 18
a 134 19
a 134 20
a 134 22
a 134 25
a 134 29
a 134 30
a 134 31
a 134 33
a 134 23
a 134 36
a 134 37
a 134 38
a 134 39
a 134 40
a 134 41
a 134 42
a 134 43
a 134 46
a 134 47
a 134 48
a 134 50
a 134 53
a 134 54
a 134 5
a 134 57
a 134 160
a 134 58
a 134 59
a 134 60
a 134 61
a 134 62
a 134 63
a 134 64
a 134 65
a 134 145
a 134 71
a 134 35
a 134 76
a 134 78
a 134 79
a 134 80
a 134 81
a 134 82
a 134 83
a 134 88
a 134 89
a 134 91
a 134 92
a 134 151
a 134 94
a 134 96
a 134 97
a 134 98
a 134 99
a 134 100
a 134 102
a 134 103
a 134 104
a 134 55
a 134 106
a 134 107
a 134 108
a 134 110
a 134 112
a 134 114
a 134 116
a 134 117
a 134 118
a 134 120
a 134 121
a 134 122
a 134 124
a 134 125
a 134 126
a 134 129
a 134 130
a 134 131
a 134 132
a 134 135
a 134 136
a 134 137
a 134 139
a 134 17
a 134 26
a 134 24
a 134 27
a 134 32
a 134 34
a 134 51
a 134 67
a 134 77
a 134 115
a 134 119
a 134 154
a 134 2
a 134 3
a 134 7
a 134 11
a 134 70
a 134 44
a 134 123
a 134 52
a 134 68
a 134 161
a 134 69
a 134 148
a 134 85
a 134 87
a 134 90
a 134 111
a 134 162
a 134 9
a 134 73
a 134 74
a 134 84
a 134 138
a 134 153
a 134 56
a 134 8
a 134 10
a 134 13
a 134 21
a 134 140
a 134 93
a 134 141
a 134 142
a 134 45
a 134 143
a 134 159
a 134 146
a 134 147
a 134 75
a 134 95
a 134 164
a 134 113
a 134 127
a 134 155
a 134 133
a 134 144
a 134 86
a 134 156
a 134 28
a 135 1
a 135 2
a 135 56
a 135 158
a 135 3
a 135 4
a 135 6
a 135 7
a 135 8
a 135 9
a 135 10
a 135 11
a 135 12
a 135 13
a 135 14
a 135 15
a 135 16
a 135 17
a 135 18
a 135 19
a 135 20
a 135 21
a 135 140
a 135 22
a 135 70
a 135 24
a 135 25
a 135 26
a 135 141
a 135 27
a 135 28
a 135 29
a 135 30
a 135 31
a 135 32
a 135 33
a 135 142
a 135 23
a 135 34
a 135 73
a 135 36
a 135 37
a 135 38
a 135 39
a 135 40
a 135 41
a 135 42
a 135 43
a 135 44
a 135 143
a 135 46
a 135 48
a 135 49
a 135 50
a 135 51
a 135 52
a 135 53
a 135 54
a 135 159
a 135 5
a 135 57
a 135 160
a 135 58
a 135 59
a 135 60
a 135 61
a 135 144
a 135 62
a 135 63
a 135 64
a 135 65
a 135 66
a 135 67
a 135 68
a 135 161
a 135 146
a 135 69
a 135 147
a 135 71
a 135 72
a 135 35
a 135 74
a 135 148
a 135 75
a 135 76
a 135 77
a 135 78
a 135 149
a 135 79
a 135 80
a 135 81
a 135 163
a 135 83
a 135 150
a 135 84
a 135 85
a 135 86
a 135 87
a 135 88
a 135 89
a 135 90
a 135 91
a 135 92
a 135 93
a 135 151
a 135 95
a 135 96
a 135 97
a 135 98
a 135 99
a 135 100
a 135 101
a 135 102
a 135 164
a 135 103
a 135 104
a 135 105
a 135 55
a 135 156
a 135 106
a 135 152
a 135 107
a 135 108
a 135 109
a 135 110
a 135 153
a 135 111
a 135 112
a 135 113
a 135 114
a 135 115
a 135 116
a 135 117
a 135 118
a 135 119
a 135 120
a 135 121
a 135 162
a 135 122
a 135 123
a 135 124
a 135 125
a 135 154
a 135 126
a 135 127
a 135 128
a 135 129
a 135 130
a 135 131
a 135 155
a 135 132
a 135 133
a 135 134
a 135 136
a 135 157
a 135 137
a 135 138
a 135 139
a 135 45
a 135 47
a 135 145
a 135 94
a 135 82
a 136 1
a 136 4
a 136 6
a 136 7
a 136 8
a 136 12
a 136 16
a 136 17
a 136 19
a 136 20
a 136 22
a 136 30
a 136 33
a 136 23
a 136 34
a 136 73
a 136 36
a 136 37
a 136 40
a 136 41
a 136 47
a 136 50
a 136 57
a 136 61
a 136 63
a 136 64
a 136 65
a 136 145
a 136 67
a 136 68
a 136 71
a 136 72
a 136 35
a 136 75
a 136 78
a 136 80
a 136 81
a 136 82
a 136 87
a 136 89
a 136 90
a 136 91
a 136 92
a 136 97
a 136 98
a 136 100
a 136 103
a 136 104
a 136 105
a 136 107
a 136 110
a 136 111
a 136 112
a 136 117
a 136 118
a 136 119
a 136 121
a 136 122
a 136 124
a 136 125
a 136 126
a 136 129
a 136 130
a 136 132
a 136 134
a 136 135
a 136 138
a 136 139
a 136 5
a 136 11
a 136 14
a 136 25
a 136 26
a 136 38
a 136 42
a 136 44
a 136 48
a 136 52
a 136 56
a 136 58
a 136 59
a 136 60
a 136 147
a 136 96
a 136 102
a 136 114
a 136 115
a 136 116
a 136 123
a 136 137
a 136 53
a 136 133
a 136 9
a 136 15
a 136 29
a 136 31
a 136 43
a 136 54
a 136 160
a 136 62
a 136 148
a 136 76
a 136 79
a 136 83
a 136 94
a 136 95
a 136 106
a 136 113
a 136 93
a 136 146
a 136 32
a 136 69
a 136 77
a 136 28
a 136 46
a 136 156
a 136 141
a 136 39
a 136 159
a 136 66
a 136 157
a 137 1
a 137 4
a 137 6
a 137 7
a 137 8
a 137 9
a 137 11
a 137 12
a 137 13
a 137 14
a 137 15
a 137 16
a 137 17
a 137 19
a 137 20
a 137 21
a 137 22
a 137 70
a 137 24
a 137 25
a 137 26
a 137 27
a 137 28
a 137 29
a 137 30
a 137 31
a 137 32
a 137 33
a 137 23
a 137 34
a 137 73
a 137 36
a 137 37
a 137 38
a 137 39
a 137 40
a 137 41
a 137 42
a 137 43
a 137 44
a 137 46
a 137 47
a 137 48
a 137 49
a 137 50
a 137 51
a 137 52
a 137 53
a 137 54
a 137 159
a 137 5
a 137 57
a 137 160
a 137 58
a 137 59
a 137 60
a 137 61
a 137 144
a 137 62
a 137 63
a 137 64
a 137 65
a 137 66
a 137 145
a 137 67
a 137 146
a 137 69
a 137 71
a 137 72
a 137 35
a 137 75
a 137 76
a 137 77
a 137 78
a 137 79
a 137 80
a 137 81
a 137 82
a 137 84
a 137 85
a 137 87
a 137 88
a 137 89
a 137 90
a 137 91
a 137 92
a 137 93
a 137 94
a 137 95
a 137 97
a 137 98
a 137 99
a 137 100
a 137 101
a 137 102
a 137 103
a 137 104
a 137 55
a 137 156
a 137 106
a 137 107
a 137 108
a 137 110
a 137 153
a 137 111
a 137 113
a 137 114
a 137 115
a 137 116
a 137 118
a 137 119
a 137 120
a 137 121
a 137 122
a 137 123
a 137 124
a 137 125
a 137 126
a 137 127
a 137 129
a 137 130
a 137 132
a 137 133
a 137 134
a 137 135
a 137 138
a 137 139
a 137 2
a 137 3
a 137 18
a 137 141
a 137 142
a 137 45
a 137 143
a 137 56
a 137 68
a 137 147
a 137 148
a 137 149
a 137 83
a 137 86
a 137 96
a 137 105
a 137 152
a 137 112
a 137 117
a 137 154
a 137 128
a 137 131
a 137 136
a 137 10
a 137 74
a 137 164
a 137 109
a 137 161
a 137 163
a 137 151
a 137 155
a 137 157
a 137 140
a 137 158
a 137 150
a 137 162
a 138 1
a 138 2
a 138 56
a 138 158
a 138 3
a 138 4
a 138 6
a 138 7
a 138 8
a 138 9
a 138 10
a 138 11
a 138 12
a 138 13
a 138 14
a 138 15
a 138 16
a 138 17
a 138 18
a 138 19
a 138 20
a 138 21
a 138 140
a 138 22
a 138 70
a 138 24
a 138 25
a 138 26
a 138 141
a 138 27
a 138 28
a 138 29
a 138 30
a 138 31
a 138 32
a 138 33
a 138 142
a 138 23
a 138 34
a 138 73
a 138 36
a 138 37
a 138 38
a 138 39
a 138 40
a 138 41
a 138 42
a 138 43
a 138 44
a 138 45
a 138 143
a 138 46
a 138 47
a 138 49
a 138 50
a 138 51
a 138 52
a 138 54
a 138 159
a 138 5
a 138 57
a 138 160
a 138 58
a 138 59
a 138 60
a 138 61
a 138 62
a 138 63
a 138 64
a 138 65
a 138 66
a 138 67
a 138 68
a 138 161
a 138 146
a 138 69
a 138 147
a 138 72
a 138 35
a 138 74
a 138 75
a 138 77
a 138 78
a 138 149
a 138 79
a 138 80
a 138 81
a 138 82
a 138 163
a 138 83
a 138 150
a 138 84
a 138 85
a 138 86
a 138 87
a 138 88
a 138 89
a 138 90
a 138 91
a 138 92
a 138 93
a 138 151
a 138 94
a 138 95
a 138 96
a 138 97
a 138 98
a 138 99
a 138 100
a 138 102
a 138 164
a 138 103
a 138 104
a 138 105
a 138 55
a 138 156
a 138 106
a 138 152
a 138 107
a 138 108
a 138 110
a 138 153
a 138 111
a 138 112
a 138 113
a 138 114
a 138 115
a 138 117
a 138 118
a 138 119
a 138 120
a 138 121
a 138 162
a 138 122
a 138 123
a 138 124
a 138 125
a 138 126
a 138 127
a 138 128
a 138 130
a 138 131
a 138 132
a 138 133
a 138 135
a 138 136
a 138 157
a 138 137
a 138 139
a 138 71
a 138 48
a 138 144
a 138 148
a 138 76
a 138 101
a 138 116
a 138 154
a 138 109
a 138 129
a 138 145
a 138 155
a 138 134
a 138 53
a 139 1
a 139 2
a 139 56
a 139 4
a 139 6
a 139 7
a 139 8
a 139 9
a 139 11
a 139 12
a 139 14
a 139 16
a 139 17
a 139 18
a 139 19
a 139 20
a 139 21
a 139 22
a 139 24
a 139 25
a 139 26
a 139 27
a 139 29
a 139 30
a 139 31
a 139 32
a 139 33
a 139 23
a 139 34
a 139 73
a 139 36
a 139 37
a 139 38
a 139 39
a 139 40
a 139 41
a 139 42
a 139 43
a 139 44
a 139 45
a 139 46
a 139 48
a 139 49
a 139 50
a 139 51
a 139 52
a 139 53
a 139 5
a 139 57
a 139 58
a 139 59
a 139 61
a 139 62
a 139 63
a 139 64
a 139 65
a 139 66
a 139 145
a 139 67
a 139 68
a 139 146
a 139 69
a 139 71
a 139 72
a 139 35
a 139 148
a 139 75
a 139 76
a 139 77
a 139 78
a 139 79
a 139 80
a 139 81
a 139 82
a 139 83
a 139 84
a 139 85
a 139 86
a 139 87
a 139 88
a 139 89
a 139 90
a 139 91
a 139 92
a 139 93
a 139 94
a 139 95
a 139 96
a 139 97
a 139 98
a 139 99
a 139 100
a 139 101
a 139 102
a 139 103
a 139 104
a 139 105
a 139 106
a 139 107
a 139 108
a 139 110
a 139 111
a 139 112
a 139 113
a 139 115
a 139 116
a 139 118
a 139 119
a 139 121
a 139 162
a 139 122
a 139 123
a 139 124
a 139 125
a 139 126
a 139 127
a 139 129
a 139 130
a 139 131
a 139 132
a 139 134
a 139 135
a 139 136
a 139 137
a 139 138
a 139 10
a 139 13
a 139 140
a 139 70
a 139 142
a 139 47
a 139 54
a 139 160
a 139 60
a 139 144
a 139 147
a 139 28
a 139 151
a 139 164
a 139 152
a 139 114
a 139 117
a 139 154
a 139 128
a 139 133
a 139 157
a 139 15
a 139 141
a 139 74
a 139 149
a 139 55
a 139 109
a 139 120
a 139 155
a 139 161
a 139 163
a 139 3
a 139 156
a 139 153
a 139 158
a 139 143
a 139 159
a 139 150
a 158 2
a 158 56
a 158 7
a 158 8
a 158 9
a 158 10
a 158 13
a 158 15
a 158 16
a 158 18
a 158 20
a 158 141
a 158 140
a 158 24
a 158 25
a 158 21
a 158 27
a 158 3
a 158 29
a 158 33
a 158 142
a 158 102
a 158 36
a 158 37
a 158 38
a 158 39
a 158 41
a 158 42
a 158 44
a 158 45
a 158 143
a 158 46
a 158 47
a 158 49
a 158 50
a 158 51
a 158 52
a 158 54
a 158 57
a 158 160
a 158 144
a 158 62
a 158 66
a 158 67
a 158 68
a 158 161
a 158 146
a 158 69
a 158 70
a 158 28
a 158 72
a 158 35
a 158 74
a 158 148
a 158 75
a 158 76
a 158 77
a 158 159
a 158 149
a 158 79
a 158 163
a 158 83
a 158 150
a 158 84
a 158 85
a 158 86
a 158 88
a 158 89
a 158 91
a 158 151
a 158 94
a 158 95
a 158 96
a 158 97
a 158 99
a 158 100
a 158 101
a 158 34
a 158 164
a 158 104
a 158 105
a 158 106
a 158 152
a 158 109
a 158 153
a 158 112
a 158 113
a 158 115
a 158 108
a 158 117
a 158 118
a 158 119
a 158 162
a 158 122
a 158 123
a 158 154
a 158 126
a 158 127
a 158 128
a 158 131
a 158 155
a 158 133
a 158 156
a 158 135
a 158 157
a 158 138
a 158 22
a 158 147
a 158 32
a 158 55
a 158 58
a 158 60
a 158 65
a 158 73
a 158 116
a 158 120
a 158 124
a 158 1
a 158 26
a 158 93
a 158 48
a 158 61
a 158 87
a 158 90
a 158 103
a 158 111
a 158 132
a 158 12
a 158 19
a 158 31
a 158 53
a 158 64
a 158 110
a 158 121
a 158 4
a 158 5
a 158 6
a 158 11
a 158 14
a 158 17
a 158 23
a 158 63
a 158 98
a 158 114
a 158 125
a 158 43
a 158 129
a 158 139
a 158 30
a 158 71
a 158 78
a 158 92
a 158 137
a 158 81
a 158 40
a 158 80
a 158 107
a 158 82
a 141 2
a 141 56
a 141 158
a 141 3
a 141 4
a 141 7
a 141 8
a 141 10
a 141 13
a 141 15
a 141 16
a 141 19
a 141 21
a 141 140
a 141 22
a 141 70
a 141 25
a 141 26
a 141 5
a 141 93
a 141 27
a 141 29
a 141 31
a 141 32
a 141 33
a 141 142
a 141 23
a 141 102
a 141 36
a 141 37
a 141 38
a 141 39
a 141 41
a 141 42
a 141 43
a 141 44
a 141 45
a 141 143
a 141 46
a 141 47
a 141 49
a 141 50
a 141 51
a 141 52
a 141 54
a 141 55
a 141 57
a 141 160
a 141 58
a 141 60
a 141 144
a 141 61
a 141 64
a 141 65
a 141 66
a 141 67
a 141 68
a 141 161
a 141 146
a 141 69
a 141 147
a 141 28
a 141 72
a 141 35
a 141 74
a 141 148
a 141 75
a 141 76
a 141 77
a 141 159
a 141 149
a 141 79
a 141 163
a 141 83
a 141 150
a 141 85
a 141 86
a 141 88
a 141 89
a 141 151
a 141 94
a 141 95
a 141 96
a 141 97
a 141 99
a 141 100
a 141 101
a 141 164
a 141 104
a 141 105
a 141 106
a 141 152
a 141 108
a 141 109
a 141 110
a 141 153
a 141 112
a 141 113
a 141 115
a 141 116
a 141 117
a 141 118
a 141 119
a 141 120
a 141 162
a 141 122
a 141 123
a 141 124
a 141 154
a 141 127
a 141 128
a 141 131
a 141 155
a 141 132
a 141 133
a 141 156
a 141 135
a 141 157
a 141 138
a 141 1
a 141 9
a 141 11
a 141 14
a 141 18
a 141 20
a 141 24
a 141 30
a 141 34
a 141 40
a 141 48
a 141 73
a 141 78
a 141 145
a 141 84
a 141 87
a 141 91
a 141 107
a 141 121
a 141 125
a 141 137
a 141 90
a 141 98
a 141 114
a 141 139
a 141 6
a 141 12
a 141 17
a 141 80
a 141 81
a 141 92
a 141 103
a 141 111
a 141 63
a 141 126
a 141 71
a 141 62
a 141 134
a 141 53
a 141 136
a 141 82
a 141 59
a 141 129
a 140 2
a 140 56
a 140 158
a 140 3
a 140 7
a 140 8
a 140 9
a 140 10
a 140 13
a 140 15
a 140 18
a 140 19
a 140 21
a 140 5
a 140 22
a 140 147
a 140 24
a 140 25
a 140 26
a 140 141
a 140 27
a 140 29
a 140 31
a 140 32
a 140 33
a 140 142
a 140 34
a 140 35
a 140 36
a 140 37
a 140 38
a 140 39
a 140 42
a 140 44
a 140 45
a 140 143
a 140 46
a 140 47
a 140 49
a 140 50
a 140 51
a 140 159
a 140 160
a 140 58
a 140 60
a 140 144
a 140 65
a 140 66
a 140 67
a 140 68
a 140 161
a 140 146
a 140 69
a 140 70
a 140 28
a 140 72
a 140 73
a 140 74
a 140 148
a 140 75
a 140 76
a 140 77
a 140 78
a 140 149
a 140 163
a 140 83
a 140 150
a 140 84
a 140 85
a 140 86
a 140 88
a 140 91
a 140 151
a 140 94
a 140 95
a 140 96
a 140 97
a 140 99
a 140 100
a 140 101
a 140 164
a 140 104
a 140 105
a 140 55
a 140 106
a 140 152
a 140 108
a 140 109
a 140 110
a 140 153
a 140 112
a 140 113
a 140 115
a 140 116
a 140 117
a 140 118
a 140 120
a 140 162
a 140 122
a 140 154
a 140 127
a 140 128
a 140 131
a 140 155
a 140 133
a 140 156
a 140 135
a 140 157
a 140 138
a 140 1
a 140 4
a 140 11
a 140 14
a 140 16
a 140 23
a 140 41
a 140 54
a 140 57
a 140 93
a 140 107
a 140 119
a 140 126
a 140 139
a 140 6
a 140 12
a 140 17
a 140 30
a 140 43
a 140 48
a 140 52
a 140 64
a 140 80
a 140 81
a 140 89
a 140 90
a 140 111
a 140 114
a 140 123
a 140 125
a 140 132
a 140 40
a 140 53
a 140 62
a 140 61
a 140 79
a 140 87
a 140 103
a 140 121
a 140 20
a 140 71
a 140 102
a 140 124
a 140 137
a 140 98
a 140 134
a 140 82
a 140 145
a 142 2
a 142 158
a 142 3
a 142 4
a 142 6
a 142 7
a 142 8
a 142 10
a 142 11
a 142 12
a 142 13
a 142 15
a 142 18
a 142 19
a 142 20
a 142 21
a 142 140
a 142 70
a 142 24
a 142 25
a 142 141
a 142 27
a 142 28
a 142 29
a 142 33
a 142 101
a 142 93
a 142 23
a 142 34
a 142 36
a 142 38
a 142 39
a 142 42
a 142 43
a 142 44
a 142 45
a 142 143
a 142 46
a 142 47
a 142 49
a 142 50
a 142 51
a 142 52
a 142 55
a 142 5
a 142 160
a 142 60
a 142 61
a 142 64
a 142 65
a 142 66
a 142 67
a 142 68
a 142 161
a 142 146
a 142 69
a 142 147
a 142 72
a 142 35
a 142 74
a 142 148
a 142 76
a 142 77
a 142 159
a 142 149
a 142 80
a 142 163
a 142 150
a 142 84
a 142 85
a 142 86
a 142 87
a 142 90
a 142 91
a 142 151
a 142 94
a 142 95
a 142 96
a 142 97
a 142 100
a 142 164
a 142 103
a 142 104
a 142 105
a 142 106
a 142 152
a 142 107
a 142 108
a 142 109
a 142 110
a 142 153
a 142 113
a 142 115
a 142 116
a 142 117
a 142 119
a 142 120
a 142 162
a 142 122
a 142 154
a 142 127
a 142 128
a 142 131
a 142 155
a 142 133
a 142 156
a 142 135
a 142 157
a 142 138
a 142 1
a 142 9
a 142 22
a 142 31
a 142 32
a 142 37
a 142 57
a 142 144
a 142 62
a 142 73
a 142 81
a 142 83
a 142 88
a 142 89
a 142 92
a 142 99
a 142 112
a 142 123
a 142 126
a 142 137
a 142 139
a 142 56
a 142 16
a 142 26
a 142 30
a 142 132
a 142 102
a 142 41
a 142 54
a 142 58
a 142 130
a 142 63
a 142 75
a 142 111
a 142 118
a 142 48
a 142 121
a 142 78
a 142 124
a 142 134
a 142 14
a 142 71
a 142 79
a 142 98
a 142 125
a 142 17
a 142 53
a 142 40
a 142 82
a 142 114
a 142 129
a 143 2
a 143 56
a 143 158
a 143 3
a 143 7
a 143 10
a 143 11
a 143 13
a 143 15
a 143 19
a 143 20
a 143 21
a 143 140
a 143 70
a 143 24
a 143 141
a 143 27
a 143 28
a 143 32
a 143 33
a 143 142
a 143 23
a 143 34
a 143 37
a 143 39
a 143 42
a 143 45
a 143 101
a 143 93
a 143 152
a 143 46
a 143 47
a 143 49
a 143 50
a 143 51
a 143 52
a 143 54
a 143 5
a 143 160
a 143 58
a 143 144
a 143 64
a 143 66
a 143 67
a 143 68
a 143 163
a 143 146
a 143 147
a 143 72
a 143 35
a 143 74
a 143 148
a 143 76
a 143 77
a 143 159
a 143 149
a 143 161
a 143 83
a 143 150
a 143 84
a 143 85
a 143 86
a 143 89
a 143 91
a 143 151
a 143 94
a 143 96
a 143 97
a 143 99
a 143 100
a 143 164
a 143 105
a 143 106
a 143 107
a 143 108
a 143 109
a 143 110
a 143 153
a 143 112
a 143 113
a 143 116
a 143 117
a 143 118
a 143 119
a 143 120
a 143 162
a 143 122
a 143 154
a 143 127
a 143 128
a 143 131
a 143 155
a 143 133
a 143 156
a 143 135
a 143 157
a 143 138
a 143 1
a 143 4
a 143 8
a 143 9
a 143 22
a 143 31
a 143 44
a 143 55
a 143 62
a 143 61
a 143 65
a 143 69
a 143 75
a 143 88
a 143 90
a 143 92
a 143 104
a 143 124
a 143 137
a 143 6
a 143 16
a 143 25
a 143 26
a 143 29
a 143 36
a 143 57
a 143 60
a 143 78
a 143 87
a 143 95
a 143 102
a 143 115
a 143 73
a 143 121
a 143 123
a 143 18
a 143 38
a 143 125
a 143 132
a 143 71
a 143 81
a 143 12
a 143 14
a 143 114
a 143 134
a 143 17
a 143 41
a 143 139
a 143 43
a 143 30
a 143 79
a 143 98
a 143 126
a 143 80
a 143 103
a 143 53
a 143 111
a 143 145
a 143 82
a 143 63
a 143 40
a 160 2
a 160 56
a 160 158
a 160 3
a 160 6
a 160 7
a 160 8
a 160 9
a 160 10
a 160 11
a 160 15
a 160 16
a 160 18
a 160 19
a 160 21
a 160 140
a 160 22
a 160 70
a 160 24
a 160 26
a 160 141
a 160 27
a 160 28
a 160 29
a 160 32
a 160 33
a 160 142
a 160 34
a 160 73
a 160 37
a 160 38
a 160 39
a 160 42
a 160 44
a 160 45
a 160 143
a 160 46
a 160 47
a 160 49
a 160 50
a 160 51
a 160 52
a 160 54
a 160 159
a 160 57
a 160 93
a 160 55
a 160 58
a 160 60
a 160 144
a 160 62
a 160 61
a 160 64
a 160 66
a 160 67
a 160 68
a 160 161
a 160 146
a 160 69
a 160 147
a 160 72
a 160 35
a 160 74
a 160 148
a 160 76
a 160 77
a 160 149
a 160 163
a 160 83
a 160 150
a 160 84
a 160 85
a 160 86
a 160 87
a 160 88
a 160 89
a 160 91
a 160 92
a 160 94
a 160 95
a 160 96
a 160 97
a 160 99
a 160 100
a 160 101
a 160 164
a 160 103
a 160 104
a 160 105
a 160 156
a 160 106
a 160 152
a 160 107
a 160 108
a 160 109
a 160 110
a 160 153
a 160 111
a 160 112
a 160 113
a 160 115
a 160 116
a 160 117
a 160 118
a 160 119
a 160 120
a 160 121
a 160 162
a 160 122
a 160 123
a 160 63
a 160 125
a 160 154
a 160 127
a 160 128
a 160 131
a 160 155
a 160 133
a 160 134
a 160 135
a 160 157
a 160 137
a 160 138
a 160 4
a 160 5
a 160 12
a 160 13
a 160 14
a 160 20
a 160 30
a 160 31
a 160 23
a 160 36
a 160 75
a 160 78
a 160 80
a 160 90
a 160 151
a 160 102
a 160 114
a 160 124
a 160 132
a 160 139
a 160 25
a 160 48
a 160 41
a 160 65
a 160 145
a 160 71
a 160 81
a 160 98
a 160 126
a 160 130
a 160 1
a 160 40
a 160 43
a 160 129
a 160 136
a 160 17
a 160 79
a 144 2
a 144 56
a 144 158
a 144 3
a 144 7
a 144 8
a 144 10
a 144 13
a 144 15
a 144 18
a 144 21
a 144 140
a 144 22
a 144 70
a 144 24
a 144 141
a 144 27
a 144 28
a 144 29
a 144 31
a 144 32
a 144 33
a 144 34
a 144 73
a 144 37
a 144 38
a 144 39
a 144 42
a 144 44
a 144 45
a 144 143
a 144 46
a 144 47
a 144 49
a 144 50
a 144 51
a 144 52
a 144 54
a 144 159
a 144 5
a 144 57
a 144 160
a 144 55
a 144 66
a 144 68
a 144 163
a 144 146
a 144 69
a 144 72
a 144 35
a 144 74
a 144 148
a 144 75
a 144 76
a 144 77
a 144 149
a 144 79
a 144 161
a 144 83
a 144 150
a 144 85
a 144 86
a 144 91
a 144 151
a 144 96
a 144 97
a 144 99
a 144 101
a 144 164
a 144 104
a 144 105
a 144 106
a 144 152
a 144 109
a 144 110
a 144 112
a 144 113
a 144 108
a 144 117
a 144 118
a 144 119
a 144 162
a 144 122
a 144 123
a 144 154
a 144 127
a 144 128
a 144 131
a 144 155
a 144 133
a 144 156
a 144 135
a 144 157
a 144 137
a 144 1
a 144 4
a 144 6
a 144 11
a 144 14
a 144 16
a 144 19
a 144 20
a 144 25
a 144 26
a 144 30
a 144 142
a 144 23
a 144 36
a 144 40
a 144 41
a 144 58
a 144 60
a 144 61
a 144 62
a 144 63
a 144 64
a 144 65
a 144 67
a 144 147
a 144 78
a 144 84
a 144 87
a 144 88
a 144 90
a 144 92
a 144 93
a 144 94
a 144 95
a 144 98
a 144 100
a 144 107
a 144 153
a 144 115
a 144 116
a 144 120
a 144 121
a 144 124
a 144 125
a 144 130
a 144 132
a 144 138
a 144 139
a 144 9
a 144 43
a 144 48
a 144 81
a 144 89
a 144 102
a 144 111
a 144 114
a 144 126
a 144 12
a 144 17
a 144 103
a 144 129
a 144 71
a 144 134
a 144 53
a 144 80
a 144 82
a 144 145
a 144 59
a 161 2
a 161 56
a 161 158
a 161 3
a 161 7
a 161 10
a 161 13
a 161 15
a 161 18
a 161 19
a 161 20
a 161 21
a 161 140
a 161 24
a 161 25
a 161 26
a 161 141
a 161 27
a 161 28
a 161 30
a 161 32
a 161 142
a 161 36
a 161 37
a 161 38
a 161 39
a 161 40
a 161 41
a 161 42
a 161 44
a 161 45
a 161 143
a 161 46
a 161 47
a 161 48
a 161 49
a 161 50
a 161 51
a 161 54
a 161 159
a 161 5
a 161 57
a 161 160
a 161 59
a 161 60
a 161 144
a 161 64
a 161 66
a 161 68
a 161 93
a 161 55
a 161 146
a 161 69
a 161 147
a 161 72
a 161 35
a 161 74
a 161 148
a 161 132
a 161 76
a 161 77
a 161 149
a 161 79
a 161 83
a 161 150
a 161 84
a 161 85
a 161 115
a 161 88
a 161 90
a 161 151
a 161 94
a 161 95
a 161 96
a 161 97
a 161 99
a 161 100
a 161 101
a 161 164
a 161 105
a 161 106
a 161 152
a 161 108
a 161 109
a 161 153
a 161 112
a 161 116
a 161 117
a 161 118
a 161 119
a 161 120
a 161 162
a 161 123
a 161 124
a 161 154
a 161 127
a 161 128
a 161 131
a 161 155
a 161 133
a 161 156
a 161 135
a 161 157
a 161 138
a 161 29
a 161 70
a 161 34
a 161 58
a 161 163
a 161 1
a 161 4
a 161 8
a 161 9
a 161 11
a 161 12
a 161 22
a 161 71
a 161 31
a 161 33
a 161 23
a 161 73
a 161 52
a 161 61
a 161 65
a 161 67
a 161 75
a 161 78
a 161 80
a 161 86
a 161 89
a 161 104
a 161 107
a 161 110
a 161 113
a 161 121
a 161 122
a 161 63
a 161 125
a 161 134
a 161 139
a 161 6
a 161 14
a 161 16
a 161 43
a 161 91
a 161 102
a 161 111
a 161 137
a 161 53
a 161 130
a 161 62
a 161 87
a 161 114
a 161 82
a 161 103
a 161 17
a 161 81
a 161 98
a 161 126
a 161 145
a 146 2
a 146 56
a 146 158
a 146 3
a 146 7
a 146 8
a 146 9
a 146 10
a 146 11
a 146 13
a 146 14
a 146 15
a 146 16
a 146 19
a 146 20
a 146 21
a 146 140
a 146 22
a 146 70
a 146 24
a 146 25
a 146 26
a 146 141
a 146 27
a 146 28
a 146 29
a 146 30
a 146 31
a 146 33
a 146 142
a 146 34
a 146 73
a 146 38
a 146 39
a 146 40
a 146 41
a 146 42
a 146 43
a 146 44
a 146 45
a 146 143
a 146 46
a 146 47
a 146 49
a 146 50
a 146 51
a 146 52
a 146 54
a 146 159
a 146 5
a 146 57
a 146 160
a 146 58
a 146 60
a 146 61
a 146 144
a 146 64
a 146 65
a 146 66
a 146 67
a 146 68
a 146 161
a 146 55
a 146 163
a 146 69
a 146 147
a 146 72
a 146 35
a 146 74
a 146 148
a 146 75
a 146 76
a 146 77
a 146 149
a 146 79
a 146 83
a 146 150
a 146 84
a 146 85
a 146 86
a 146 87
a 146 88
a 146 89
a 146 90
a 146 91
a 146 93
a 146 151
a 146 94
a 146 95
a 146 96
a 146 97
a 146 99
a 146 100
a 146 101
a 146 102
a 146 164
a 146 104
a 146 105
a 146 106
a 146 152
a 146 107
a 146 108
a 146 110
a 146 153
a 146 111
a 146 112
a 146 113
a 146 114
a 146 115
a 146 116
a 146 117
a 146 118
a 146 119
a 146 120
a 146 121
a 146 162
a 146 122
a 146 123
a 146 124
a 146 154
a 146 126
a 146 127
a 146 128
a 146 131
a 146 132
a 146 133
a 146 156
a 146 135
a 146 157
a 146 137
a 146 138
a 146 139
a 146 1
a 146 4
a 146 6
a 146 12
a 146 17
a 146 18
a 146 71
a 146 32
a 146 23
a 146 36
a 146 37
a 146 62
a 146 78
a 146 80
a 146 98
a 146 103
a 146 125
a 146 155
a 146 81
a 146 130
a 146 48
a 146 109
a 146 63
a 146 136
a 146 53
a 146 129
a 146 134
a 146 92
a 146 82
a 146 145
a 147 2
a 147 56
a 147 3
a 147 4
a 147 6
a 147 7
a 147 8
a 147 9
a 147 10
a 147 11
a 147 14
a 147 15
a 147 16
a 147 18
a 147 19
a 147 20
a 147 140
a 147 22
a 147 70
a 147 24
a 147 25
a 147 26
a 147 141
a 147 27
a 147 28
a 147 29
a 147 30
a 147 31
a 147 32
a 147 33
a 147 142
a 147 34
a 147 73
a 147 36
a 147 37
a 147 38
a 147 39
a 147 40
a 147 41
a 147 42
a 147 44
a 147 45
a 147 143
a 147 46
a 147 47
a 147 49
a 147 50
a 147 51
a 147 52
a 147 54
a 147 159
a 147 57
a 147 160
a 147 58
a 147 59
a 147 60
a 147 61
a 147 64
a 147 65
a 147 66
a 147 67
a 147 68
a 147 161
a 147 146
a 147 69
a 147 35
a 147 55
a 147 72
a 147 74
a 147 148
a 147 75
a 147 76
a 147 77
a 147 149
a 147 79
a 147 80
a 147 163
a 147 83
a 147 150
a 147 84
a 147 85
a 147 86
a 147 87
a 147 88
a 147 89
a 147 90
a 147 91
a 147 93
a 147 151
a 147 94
a 147 95
a 147 96
a 147 97
a 147 99
a 147 100
a 147 101
a 147 102
a 147 164
a 147 104
a 147 105
a 147 106
a 147 152
a 147 107
a 147 108
a 147 109
a 147 110
a 147 153
a 147 112
a 147 113
a 147 114
a 147 115
a 147 116
a 147 117
a 147 118
a 147 119
a 147 120
a 147 121
a 147 162
a 147 122
a 147 123
a 147 124
a 147 125
a 147 154
a 147 126
a 147 127
a 147 128
a 147 130
a 147 131
a 147 155
a 147 132
a 147 133
a 147 156
a 147 135
a 147 157
a 147 138
a 147 1
a 147 158
a 147 5
a 147 12
a 147 17
a 147 21
a 147 71
a 147 23
a 147 43
a 147 144
a 147 62
a 147 78
a 147 92
a 147 98
a 147 103
a 147 111
a 147 129
a 147 136
a 147 137
a 147 139
a 147 13
a 147 48
a 147 145
a 147 81
a 147 63
a 147 53
a 147 134
a 148 2
a 148 158
a 148 3
a 148 4
a 148 6
a 148 7
a 148 8
a 148 9
a 148 10
a 148 11
a 148 13
a 148 15
a 148 17
a 148 18
a 148 21
a 148 140
a 148 22
a 148 70
a 148 24
a 148 25
a 148 141
a 148 27
a 148 28
a 148 29
a 148 31
a 148 32
a 148 33
a 148 142
a 148 34
a 148 73
a 148 36
a 148 37
a 148 39
a 148 41
a 148 44
a 148 45
a 148 143
a 148 46
a 148 47
a 148 49
a 148 50
a 148 51
a 148 52
a 148 54
a 148 159
a 148 57
a 148 160
a 148 58
a 148 59
a 148 60
a 148 61
a 148 144
a 148 62
a 148 63
a 148 64
a 148 65
a 148 66
a 148 68
a 148 161
a 148 146
a 148 69
a 148 147
a 148 71
a 148 72
a 148 35
a 148 74
a 148 93
a 148 163
a 148 75
a 148 76
a 148 77
a 148 78
a 148 149
a 148 79
a 148 82
a 148 150
a 148 84
a 148 85
a 148 86
a 148 88
a 148 90
a 148 92
a 148 151
a 148 94
a 148 95
a 148 96
a 148 97
a 148 98
a 148 99
a 148 101
a 148 164
a 148 104
a 148 105
a 148 55
a 148 106
a 148 152
a 148 107
a 148 109
a 148 110
a 148 112
a 148 113
a 148 115
a 148 108
a 148 117
a 148 118
a 148 119
a 148 120
a 148 121
a 148 162
a 148 122
a 148 123
a 148 154
a 148 127
a 148 128
a 148 130
a 148 131
a 148 155
a 148 132
a 148 133
a 148 156
a 148 135
a 148 157
a 148 139
a 148 1
a 148 5
a 148 12
a 148 16
a 148 19
a 148 20
a 148 30
a 148 38
a 148 40
a 148 42
a 148 43
a 148 48
a 148 56
a 148 145
a 148 67
a 148 81
a 148 83
a 148 87
a 148 89
a 148 91
a 148 100
a 148 103
a 148 153
a 148 111
a 148 116
a 148 124
a 148 125
a 148 126
a 148 129
a 148 137
a 148 138
a 148 14
a 148 26
a 148 23
a 148 53
a 148 102
a 148 80
a 148 114
a 148 134
a 148 136
a 159 2
a 159 56
a 159 158
a 159 3
a 159 4
a 159 7
a 159 8
a 159 9
a 159 10
a 159 13
a 159 14
a 159 15
a 159 18
a 159 19
a 159 21
a 159 140
a 159 22
a 159 70
a 159 24
a 159 25
a 159 26
a 159 141
a 159 27
a 159 28
a 159 29
a 159 30
a 159 33
a 159 142
a 159 34
a 159 36
a 159 37
a 159 38
a 159 39
a 159 41
a 159 42
a 159 44
a 159 45
a 159 143
a 159 46
a 159 47
a 159 49
a 159 50
a 159 51
a 159 54
a 159 93
a 159 55
a 159 57
a 159 160
a 159 58
a 159 144
a 159 61
a 159 64
a 159 66
a 159 67
a 159 68
a 159 163
a 159 146
a 159 69
a 159 147
a 159 72
a 159 35
a 159 74
a 159 148
a 159 76
a 159 77
a 159 149
a 159 79
a 159 81
a 159 161
a 159 83
a 159 150
a 159 84
a 159 85
a 159 86
a 159 88
a 159 89
a 159 90
a 159 91
a 159 151
a 159 94
a 159 95
a 159 96
a 159 97
a 159 99
a 159 100
a 159 101
a 159 164
a 159 105
a 159 106
a 159 152
a 159 109
a 159 111
a 159 112
a 159 113
a 159 115
a 159 108
a 159 118
a 159 119
a 159 120
a 159 121
a 159 162
a 159 122
a 159 123
a 159 154
a 159 126
a 159 127
a 159 128
a 159 131
a 159 155
a 159 133
a 159 156
a 159 135
a 159 157
a 159 137
a 159 138
a 159 73
a 159 65
a 159 104
a 159 107
a 159 110
a 159 153
a 159 116
a 159 117
a 159 1
a 159 6
a 159 11
a 159 20
a 159 52
a 159 63
a 159 71
a 159 75
a 159 87
a 159 125
a 159 132
a 159 60
a 159 12
a 159 31
a 159 32
a 159 48
a 159 5
a 159 16
a 159 92
a 159 134
a 159 124
a 159 17
a 159 40
a 159 53
a 159 62
a 159 78
a 159 98
a 159 102
a 159 114
a 159 136
a 159 139
a 159 23
a 159 43
a 159 80
a 159 82
a 159 145
a 159 103
a 159 129
a 149 2
a 149 56
a 149 158
a 149 3
a 149 4
a 149 6
a 149 7
a 149 8
a 149 9
a 149 10
a 149 11
a 149 13
a 149 15
a 149 16
a 149 19
a 149 20
a 149 21
a 149 140
a 149 22
a 149 70
a 149 24
a 149 26
a 149 141
a 149 27
a 149 28
a 149 29
a 149 30
a 149 31
a 149 32
a 149 33
a 149 142
a 149 34
a 149 73
a 149 36
a 149 37
a 149 38
a 149 39
a 149 41
a 149 42
a 149 43
a 149 44
a 149 45
a 149 143
a 149 46
a 149 47
a 149 49
a 149 50
a 149 51
a 149 52
a 149 54
a 149 159
a 149 5
a 149 57
a 149 160
a 149 58
a 149 60
a 149 144
a 149 62
a 149 64
a 149 65
a 149 66
a 149 67
a 149 68
a 149 161
a 149 146
a 149 69
a 149 147
a 149 72
a 149 35
a 149 74
a 149 148
a 149 76
a 149 77
a 149 78
a 149 132
a 149 93
a 149 163
a 149 79
a 149 80
a 149 83
a 149 150
a 149 84
a 149 85
a 149 86
a 149 87
a 149 88
a 149 89
a 149 90
a 149 91
a 149 92
a 149 151
a 149 94
a 149 95
a 149 96
a 149 97
a 149 99
a 149 100
a 149 101
a 149 164
a 149 104
a 149 105
a 149 55
a 149 106
a 149 152
a 149 107
a 149 108
a 149 110
a 149 153
a 149 111
a 149 112
a 149 113
a 149 115
a 149 116
a 149 117
a 149 118
a 149 119
a 149 120
a 149 121
a 149 162
a 149 122
a 149 123
a 149 125
a 149 154
a 149 126
a 149 127
a 149 128
a 149 130
a 149 131
a 149 155
a 149 133
a 149 135
a 149 157
a 149 138
a 149 1
a 149 12
a 149 14
a 149 71
a 149 40
a 149 75
a 149 102
a 149 109
a 149 124
a 149 156
a 149 137
a 149 18
a 149 25
a 149 61
a 149 139
a 149 17
a 149 103
a 149 53
a 149 63
a 149 114
a 149 48
a 149 81
a 149 23
a 149 82
a 149 98
a 149 129
a 163 2
a 163 56
a 163 158
a 163 3
a 163 7
a 163 8
a 163 9
a 163 10
a 163 11
a 163 15
a 163 16
a 163 18
a 163 19
a 163 21
a 163 140
a 163 22
a 163 70
a 163 24
a 163 25
a 163 26
a 163 141
a 163 27
a 163 28
a 163 29
a 163 31
a 163 33
a 163 142
a 163 34
a 163 73
a 163 37
a 163 38
a 163 39
a 163 41
a 163 42
a 163 44
a 163 45
a 163 143
a 163 46
a 163 47
a 163 49
a 163 50
a 163 51
a 163 52
a 163 54
a 163 159
a 163 57
a 163 160
a 163 60
a 163 61
a 163 144
a 163 64
a 163 66
a 163 68
a 163 146
a 163 69
a 163 147
a 163 71
a 163 72
a 163 35
a 163 74
a 163 148
a 163 76
a 163 77
a 163 149
a 163 93
a 163 55
a 163 83
a 163 150
a 163 84
a 163 85
a 163 86
a 163 88
a 163 89
a 163 91
a 163 151
a 163 94
a 163 95
a 163 96
a 163 97
a 163 100
a 163 101
a 163 164
a 163 104
a 163 105
a 163 106
a 163 152
a 163 108
a 163 109
a 163 110
a 163 153
a 163 112
a 163 113
a 163 115
a 163 116
a 163 117
a 163 118
a 163 119
a 163 120
a 163 162
a 163 122
a 163 123
a 163 124
a 163 125
a 163 126
a 163 127
a 163 128
a 163 131
a 163 155
a 163 133
a 163 135
a 163 157
a 163 138
a 163 13
a 163 30
a 163 58
a 163 63
a 163 65
a 163 67
a 163 79
a 163 111
a 163 156
a 163 161
a 163 132
a 163 4
a 163 14
a 163 32
a 163 48
a 163 62
a 163 139
a 163 154
a 163 1
a 163 20
a 163 36
a 163 75
a 163 81
a 163 78
a 163 87
a 163 137
a 163 99
a 163 103
a 163 121
a 163 6
a 163 12
a 163 5
a 163 114
a 163 129
a 163 23
a 163 43
a 163 53
a 163 102
a 163 82
a 163 17
a 163 40
a 163 80
a 163 107
a 150 2
a 150 56
a 150 158
a 150 3
a 150 4
a 150 7
a 150 8
a 150 9
a 150 10
a 150 13
a 150 15
a 150 18
a 150 19
a 150 20
a 150 21
a 150 140
a 150 22
a 150 70
a 150 24
a 150 26
a 150 141
a 150 27
a 150 28
a 150 29
a 150 30
a 150 31
a 150 32
a 150 33
a 150 142
a 150 34
a 150 73
a 150 36
a 150 37
a 150 38
a 150 39
a 150 42
a 150 43
a 150 44
a 150 45
a 150 143
a 150 46
a 150 47
a 150 48
a 150 49
a 150 50
a 150 51
a 150 52
a 150 54
a 150 159
a 150 57
a 150 160
a 150 58
a 150 60
a 150 61
a 150 144
a 150 64
a 150 65
a 150 66
a 150 67
a 150 68
a 150 161
a 150 146
a 150 69
a 150 147
a 150 72
a 150 35
a 150 74
a 150 148
a 150 75
a 150 76
a 150 77
a 150 149
a 150 79
a 150 163
a 150 93
a 150 55
a 150 84
a 150 85
a 150 86
a 150 87
a 150 88
a 150 89
a 150 90
a 150 91
a 150 92
a 150 151
a 150 94
a 150 95
a 150 96
a 150 97
a 150 99
a 150 100
a 150 101
a 150 164
a 150 104
a 150 105
a 150 106
a 150 152
a 150 108
a 150 109
a 150 110
a 150 153
a 150 111
a 150 112
a 150 113
a 150 115
a 150 116
a 150 117
a 150 118
a 150 119
a 150 120
a 150 121
a 150 162
a 150 122
a 150 123
a 150 124
a 150 125
a 150 154
a 150 126
a 150 127
a 150 128
a 150 131
a 150 155
a 150 132
a 150 133
a 150 156
a 150 135
a 150 157
a 150 138
a 150 1
a 150 16
a 150 145
a 150 78
a 150 11
a 150 12
a 150 83
a 150 41
a 150 5
a 150 137
a 150 139
a 150 98
a 150 17
a 150 40
a 150 53
a 150 107
a 150 71
a 150 23
a 150 82
a 150 81
a 150 103
a 150 62
a 150 80
a 150 129
a 150 6
a 151 2
a 151 56
a 151 158
a 151 3
a 151 7
a 151 10
a 151 11
a 151 12
a 151 13
a 151 15
a 151 17
a 151 18
a 151 19
a 151 20
a 151 21
a 151 140
a 151 22
a 151 70
a 151 24
a 151 25
a 151 141
a 151 27
a 151 28
a 151 29
a 151 30
a 151 32
a 151 33
a 151 142
a 151 34
a 151 73
a 151 36
a 151 37
a 151 38
a 151 39
a 151 41
a 151 42
a 151 44
a 151 45
a 151 143
a 151 46
a 151 47
a 151 48
a 151 49
a 151 50
a 151 51
a 151 54
a 151 159
a 151 5
a 151 57
a 151 58
a 151 60
a 151 144
a 151 63
a 151 64
a 151 65
a 151 66
a 151 67
a 151 68
a 151 161
a 151 146
a 151 69
a 151 147
a 151 72
a 151 35
a 151 74
a 151 148
a 151 75
a 151 76
a 151 77
a 151 78
a 151 149
a 151 163
a 151 83
a 151 150
a 151 84
a 151 85
a 151 86
a 151 87
a 151 88
a 151 89
a 151 90
a 151 91
a 151 93
a 151 94
a 151 95
a 151 96
a 151 97
a 151 99
a 151 101
a 151 164
a 151 104
a 151 105
a 151 55
a 151 156
a 151 106
a 151 152
a 151 107
a 151 108
a 151 109
a 151 110
a 151 153
a 151 112
a 151 113
a 151 114
a 151 115
a 151 116
a 151 117
a 151 118
a 151 119
a 151 120
a 151 162
a 151 122
a 151 123
a 151 154
a 151 126
a 151 127
a 151 128
a 151 129
a 151 131
a 151 155
a 151 132
a 151 133
a 151 134
a 151 135
a 151 157
a 151 138
a 151 1
a 151 4
a 151 8
a 151 71
a 151 52
a 151 160
a 151 79
a 151 100
a 151 111
a 151 121
a 151 125
a 151 139
a 151 6
a 151 9
a 151 16
a 151 26
a 151 31
a 151 40
a 151 43
a 151 61
a 151 103
a 151 124
a 151 53
a 151 62
a 151 81
a 151 137
a 151 14
a 151 80
a 151 98
a 151 23
a 151 102
a 151 82
a 151 145
a 164 2
a 164 56
a 164 158
a 164 3
a 164 4
a 164 6
a 164 7
a 164 8
a 164 10
a 164 13
a 164 15
a 164 18
a 164 19
a 164 20
a 164 21
a 164 140
a 164 22
a 164 70
a 164 24
a 164 25
a 164 141
a 164 27
a 164 28
a 164 29
a 164 30
a 164 31
a 164 33
a 164 142
a 164 23
a 164 34
a 164 36
a 164 37
a 164 38
a 164 39
a 164 41
a 164 42
a 164 45
a 164 143
a 164 46
a 164 47
a 164 49
a 164 50
a 164 51
a 164 52
a 164 54
a 164 159
a 164 5
a 164 57
a 164 160
a 164 58
a 164 59
a 164 60
a 164 61
a 164 144
a 164 64
a 164 65
a 164 66
a 164 67
a 164 68
a 164 161
a 164 146
a 164 69
a 164 147
a 164 72
a 164 35
a 164 74
a 164 148
a 164 75
a 164 76
a 164 77
a 164 149
a 164 81
a 164 163
a 164 83
a 164 150
a 164 84
a 164 85
a 164 86
a 164 88
a 164 89
a 164 90
a 164 93
a 164 151
a 164 94
a 164 95
a 164 96
a 164 97
a 164 99
a 164 100
a 164 101
a 164 102
a 164 104
a 164 105
a 164 106
a 164 152
a 164 108
a 164 109
a 164 110
a 164 153
a 164 111
a 164 112
a 164 113
a 164 115
a 164 116
a 164 117
a 164 118
a 164 119
a 164 120
a 164 162
a 164 122
a 164 123
a 164 154
a 164 126
a 164 127
a 164 128
a 164 130
a 164 131
a 164 155
a 164 132
a 164 133
a 164 156
a 164 135
a 164 157
a 164 138
a 164 14
a 164 73
a 164 44
a 164 87
a 164 91
a 164 124
a 164 125
a 164 139
a 164 9
a 164 11
a 164 16
a 164 40
a 164 43
a 164 48
a 164 53
a 164 62
a 164 63
a 164 78
a 164 79
a 164 92
a 164 98
a 164 103
a 164 55
a 164 107
a 164 121
a 164 137
a 164 26
a 164 32
a 164 114
a 164 1
a 164 12
a 164 17
a 164 71
a 164 80
a 164 134
a 164 82
a 164 145
a 152 2
a 152 56
a 152 158
a 152 3
a 152 7
a 152 8
a 152 10
a 152 13
a 152 14
a 152 15
a 152 18
a 152 19
a 152 20
a 152 21
a 152 140
a 152 70
a 152 24
a 152 25
a 152 141
a 152 27
a 152 28
a 152 29
a 152 31
a 152 32
a 152 142
a 152 34
a 152 73
a 152 36
a 152 37
a 152 39
a 152 42
a 152 43
a 152 44
a 152 45
a 152 143
a 152 46
a 152 47
a 152 48
a 152 49
a 152 50
a 152 51
a 152 52
a 152 54
a 152 159
a 152 57
a 152 160
a 152 58
a 152 60
a 152 144
a 152 64
a 152 65
a 152 66
a 152 67
a 152 68
a 152 161
a 152 146
a 152 69
a 152 147
a 152 72
a 152 35
a 152 74
a 152 148
a 152 75
a 152 76
a 152 77
a 152 149
a 152 79
a 152 163
a 152 83
a 152 150
a 152 84
a 152 86
a 152 87
a 152 89
a 152 91
a 152 93
a 152 151
a 152 94
a 152 95
a 152 96
a 152 97
a 152 99
a 152 100
a 152 101
a 152 164
a 152 104
a 152 105
a 152 55
a 152 156
a 152 106
a 152 107
a 152 108
a 152 109
a 152 110
a 152 153
a 152 111
a 152 115
a 152 116
a 152 117
a 152 118
a 152 119
a 152 120
a 152 162
a 152 122
a 152 123
a 152 154
a 152 126
a 152 127
a 152 128
a 152 131
a 152 155
a 152 132
a 152 133
a 152 135
a 152 157
a 152 138
a 152 1
a 152 16
a 152 22
a 152 30
a 152 33
a 152 38
a 152 40
a 152 59
a 152 61
a 152 85
a 152 88
a 152 90
a 152 112
a 152 113
a 152 121
a 152 125
a 152 137
a 152 139
a 152 4
a 152 9
a 152 11
a 152 12
a 152 17
a 152 26
a 152 23
a 152 5
a 152 62
a 152 80
a 152 98
a 152 114
a 152 41
a 152 103
a 152 124
a 152 71
a 152 78
a 152 81
a 152 63
a 152 6
a 152 102
a 152 53
a 152 82
a 152 145
a 153 2
a 153 56
a 153 158
a 153 3
a 153 4
a 153 6
a 153 7
a 153 8
a 153 9
a 153 10
a 153 11
a 153 12
a 153 13
a 153 14
a 153 15
a 153 16
a 153 18
a 153 19
a 153 20
a 153 21
a 153 140
a 153 22
a 153 70
a 153 24
a 153 25
a 153 141
a 153 27
a 153 28
a 153 30
a 153 31
a 153 32
a 153 33
a 153 142
a 153 34
a 153 36
a 153 37
a 153 38
a 153 39
a 153 40
a 153 41
a 153 42
a 153 43
a 153 44
a 153 45
a 153 143
a 153 46
a 153 47
a 153 49
a 153 50
a 153 51
a 153 52
a 153 54
a 153 5
a 153 57
a 153 160
a 153 58
a 153 59
a 153 60
a 153 62
a 153 63
a 153 64
a 153 65
a 153 66
a 153 67
a 153 68
a 153 161
a 153 146
a 153 69
a 153 147
a 153 72
a 153 35
a 153 74
a 153 75
a 153 76
a 153 77
a 153 149
a 153 79
a 153 80
a 153 81
a 153 163
a 153 83
a 153 150
a 153 84
a 153 85
a 153 86
a 153 87
a 153 88
a 153 89
a 153 90
a 153 92
a 153 93
a 153 151
a 153 94
a 153 95
a 153 96
a 153 97
a 153 99
a 153 100
a 153 101
a 153 102
a 153 164
a 153 103
a 153 104
a 153 105
a 153 55
a 153 156
a 153 106
a 153 152
a 153 107
a 153 108
a 153 109
a 153 110
a 153 111
a 153 112
a 153 113
a 153 115
a 153 116
a 153 117
a 153 118
a 153 119
a 153 120
a 153 121
a 153 162
a 153 122
a 153 123
a 153 124
a 153 125
a 153 154
a 153 126
a 153 127
a 153 128
a 153 131
a 153 155
a 153 132
a 153 133
a 153 135
a 153 157
a 153 137
a 153 138
a 153 1
a 153 26
a 153 29
a 153 73
a 153 48
a 153 159
a 153 144
a 153 148
a 153 78
a 153 98
a 153 61
a 153 71
a 153 91
a 153 53
a 153 134
a 153 130
a 153 139
a 153 114
a 153 17
a 153 82
a 153 23
a 153 129
a 162 2
a 162 56
a 162 158
a 162 3
a 162 4
a 162 6
a 162 7
a 162 8
a 162 9
a 162 10
a 162 11
a 162 12
a 162 13
a 162 14
a 162 15
a 162 18
a 162 19
a 162 20
a 162 21
a 162 140
a 162 22
a 162 70
a 162 24
a 162 25
a 162 26
a 162 141
a 162 27
a 162 28
a 162 29
a 162 30
a 162 31
a 162 32
a 162 33
a 162 142
a 162 34
a 162 73
a 162 37
a 162 39
a 162 42
a 162 44
a 162 143
a 162 46
a 162 47
a 162 48
a 162 49
a 162 50
a 162 51
a 162 52
a 162 159
a 162 5
a 162 57
a 162 160
a 162 58
a 162 60
a 162 144
a 162 64
a 162 65
a 162 66
a 162 67
a 162 68
a 162 161
a 162 146
a 162 69
a 162 147
a 162 71
a 162 72
a 162 35
a 162 74
a 162 148
a 162 75
a 162 76
a 162 77
a 162 149
a 162 163
a 162 83
a 162 150
a 162 85
a 162 86
a 162 87
a 162 88
a 162 90
a 162 91
a 162 93
a 162 151
a 162 95
a 162 96
a 162 97
a 162 99
a 162 100
a 162 101
a 162 102
a 162 164
a 162 104
a 162 105
a 162 55
a 162 156
a 162 106
a 162 152
a 162 108
a 162 109
a 162 110
a 162 153
a 162 112
a 162 113
a 162 114
a 162 115
a 162 116
a 162 117
a 162 118
a 162 119
a 162 120
a 162 122
a 162 124
a 162 125
a 162 154
a 162 126
a 162 127
a 162 128
a 162 131
a 162 155
a 162 133
a 162 135
a 162 157
a 162 138
a 162 139
a 162 36
a 162 43
a 162 45
a 162 54
a 162 84
a 162 94
a 162 132
a 162 111
a 162 1
a 162 16
a 162 17
a 162 23
a 162 38
a 162 123
a 162 53
a 162 62
a 162 61
a 162 145
a 162 78
a 162 79
a 162 80
a 162 81
a 162 89
a 162 98
a 162 103
a 162 107
a 162 121
a 162 63
a 162 41
a 162 129
a 162 134
a 162 40
a 162 130
a 162 137
a 162 82
a 162 59
a 154 2
a 154 56
a 154 158
a 154 3
a 154 4
a 154 6
a 154 7
a 154 9
a 154 10
a 154 11
a 154 13
a 154 15
a 154 17
a 154 18
a 154 19
a 154 20
a 154 21
a 154 140
a 154 22
a 154 70
a 154 24
a 154 26
a 154 141
a 154 27
a 154 28
a 154 29
a 154 31
a 154 32
a 154 33
a 154 142
a 154 23
a 154 34
a 154 73
a 154 36
a 154 37
a 154 39
a 154 42
a 154 44
a 154 45
a 154 143
a 154 46
a 154 47
a 154 49
a 154 50
a 154 51
a 154 52
a 154 54
a 154 159
a 154 5
a 154 57
a 154 160
a 154 58
a 154 59
a 154 60
a 154 61
a 154 144
a 154 62
a 154 64
a 154 65
a 154 66
a 154 67
a 154 68
a 154 161
a 154 146
a 154 69
a 154 147
a 154 35
a 154 74
a 154 148
a 154 75
a 154 76
a 154 77
a 154 78
a 154 149
a 154 79
a 154 80
a 154 83
a 154 150
a 154 85
a 154 86
a 154 87
a 154 89
a 154 91
a 154 92
a 154 93
a 154 151
a 154 94
a 154 95
a 154 96
a 154 97
a 154 98
a 154 99
a 154 100
a 154 101
a 154 164
a 154 104
a 154 105
a 154 55
a 154 156
a 154 106
a 154 152
a 154 107
a 154 108
a 154 109
a 154 110
a 154 153
a 154 111
a 154 112
a 154 113
a 154 115
a 154 116
a 154 117
a 154 118
a 154 119
a 154 120
a 154 121
a 154 162
a 154 122
a 154 123
a 154 124
a 154 125
a 154 127
a 154 128
a 154 129
a 154 131
a 154 155
a 154 132
a 154 133
a 154 135
a 154 157
a 154 1
a 154 8
a 154 12
a 154 14
a 154 25
a 154 30
a 154 38
a 154 48
a 154 63
a 154 72
a 154 81
a 154 82
a 154 84
a 154 88
a 154 102
a 154 114
a 154 130
a 154 137
a 154 138
a 154 139
a 154 16
a 154 40
a 154 43
a 154 90
a 154 126
a 154 134
a 154 53
a 154 145
a 154 163
a 154 41
a 154 103
a 154 71
a 155 2
a 155 56
a 155 158
a 155 3
a 155 4
a 155 7
a 155 10
a 155 11
a 155 13
a 155 14
a 155 15
a 155 19
a 155 20
a 155 21
a 155 140
a 155 22
a 155 70
a 155 24
a 155 25
a 155 141
a 155 27
a 155 28
a 155 29
a 155 32
a 155 33
a 155 142
a 155 34
a 155 37
a 155 39
a 155 42
a 155 44
a 155 45
a 155 143
a 155 46
a 155 47
a 155 49
a 155 50
a 155 51
a 155 54
a 155 159
a 155 5
a 155 160
a 155 58
a 155 144
a 155 64
a 155 65
a 155 66
a 155 68
a 155 161
a 155 69
a 155 147
a 155 35
a 155 74
a 155 148
a 155 76
a 155 77
a 155 149
a 155 79
a 155 80
a 155 163
a 155 83
a 155 150
a 155 85
a 155 151
a 155 94
a 155 95
a 155 96
a 155 97
a 155 99
a 155 100
a 155 101
a 155 164
a 155 104
a 155 105
a 155 55
a 155 156
a 155 106
a 155 152
a 155 107
a 155 109
a 155 110
a 155 153
a 155 111
a 155 112
a 155 113
a 155 115
a 155 117
a 155 120
a 155 162
a 155 122
a 155 154
a 155 127
a 155 128
a 155 131
a 155 132
a 155 133
a 155 135
a 155 157
a 155 1
a 155 8
a 155 16
a 155 18
a 155 30
a 155 73
a 155 52
a 155 57
a 155 146
a 155 72
a 155 75
a 155 84
a 155 88
a 155 89
a 155 91
a 155 93
a 155 108
a 155 116
a 155 118
a 155 119
a 155 123
a 155 126
a 155 6
a 155 9
a 155 26
a 155 31
a 155 36
a 155 43
a 155 48
a 155 60
a 155 61
a 155 63
a 155 67
a 155 78
a 155 90
a 155 102
a 155 114
a 155 121
a 155 41
a 155 139
a 155 12
a 155 38
a 155 40
a 155 145
a 155 86
a 155 125
a 155 124
a 155 138
a 155 62
a 155 81
a 155 87
a 155 137
a 155 71
a 155 129
a 155 53
a 155 98
a 155 103
a 155 134
a 155 130
a 155 23
a 155 82
a 155 17
a 156 2
a 156 56
a 156 158
a 156 3
a 156 6
a 156 7
a 156 8
a 156 10
a 156 11
a 156 13
a 156 15
a 156 16
a 156 17
a 156 19
a 156 21
a 156 140
a 156 22
a 156 70
a 156 24
a 156 25
a 156 26
a 156 141
a 156 27
a 156 28
a 156 29
a 156 31
a 156 33
a 156 142
a 156 23
a 156 73
a 156 38
a 156 39
a 156 42
a 156 44
a 156 45
a 156 143
a 156 46
a 156 47
a 156 49
a 156 50
a 156 51
a 156 52
a 156 54
a 156 159
a 156 57
a 156 160
a 156 60
a 156 144
a 156 64
a 156 65
a 156 66
a 156 68
a 156 161
a 156 146
a 156 69
a 156 147
a 156 72
a 156 35
a 156 74
a 156 148
a 156 75
a 156 76
a 156 77
a 156 83
a 156 150
a 156 84
a 156 85
a 156 86
a 156 88
a 156 90
a 156 91
a 156 93
a 156 151
a 156 94
a 156 95
a 156 96
a 156 97
a 156 99
a 156 100
a 156 101
a 156 164
a 156 104
a 156 105
a 156 55
a 156 106
a 156 152
a 156 107
a 156 108
a 156 109
a 156 110
a 156 153
a 156 111
a 156 113
a 156 116
a 156 117
a 156 118
a 156 119
a 156 120
a 156 162
a 156 122
a 156 123
a 156 124
a 156 154
a 156 127
a 156 128
a 156 131
a 156 155
a 156 133
a 156 135
a 156 157
a 156 137
a 156 138
a 156 1
a 156 4
a 156 12
a 156 14
a 156 18
a 156 20
a 156 30
a 156 32
a 156 34
a 156 37
a 156 41
a 156 58
a 156 61
a 156 62
a 156 67
a 156 149
a 156 163
a 156 89
a 156 102
a 156 103
a 156 112
a 156 114
a 156 115
a 156 125
a 156 126
a 156 121
a 156 132
a 156 9
a 156 43
a 156 79
a 156 40
a 156 48
a 156 81
a 156 87
a 156 92
a 156 63
a 156 139
a 156 36
a 156 5
a 156 136
a 156 71
a 156 134
a 156 78
a 156 98
a 156 82
a 156 53
a 156 80
a 156 129
a 157 2
a 157 56
a 157 158
a 157 3
a 157 4
a 157 6
a 157 7
a 157 8
a 157 10
a 157 11
a 157 13
a 157 15
a 157 18
a 157 19
a 157 20
a 157 21
a 157 140
a 157 22
a 157 70
a 157 24
a 157 25
a 157 26
a 157 141
a 157 27
a 157 28
a 157 29
a 157 30
a 157 31
a 157 33
a 157 142
a 157 73
a 157 36
a 157 37
a 157 38
a 157 39
a 157 42
a 157 44
a 157 45
a 157 143
a 157 46
a 157 47
a 157 49
a 157 50
a 157 51
a 157 52
a 157 54
a 157 159
a 157 5
a 157 57
a 157 160
a 157 58
a 157 60
a 157 144
a 157 65
a 157 66
a 157 67
a 157 68
a 157 161
a 157 146
a 157 69
a 157 147
a 157 72
a 157 35
a 157 74
a 157 148
a 157 75
a 157 76
a 157 77
a 157 149
a 157 163
a 157 83
a 157 150
a 157 84
a 157 85
a 157 86
a 157 88
a 157 89
a 157 90
a 157 91
a 157 93
a 157 151
a 157 94
a 157 95
a 157 96
a 157 97
a 157 98
a 157 99
a 157 100
a 157 101
a 157 164
a 157 104
a 157 105
a 157 55
a 157 156
a 157 106
a 157 152
a 157 107
a 157 108
a 157 109
a 157 110
a 157 153
a 157 112
a 157 113
a 157 114
a 157 115
a 157 116
a 157 117
a 157 118
a 157 119
a 157 120
a 157 121
a 157 162
a 157 122
a 157 123
a 157 154
a 157 127
a 157 128
a 157 131
a 157 155
a 157 133
a 157 135
a 157 138
a 157 1
a 157 9
a 157 14
a 157 16
a 157 23
a 157 34
a 157 40
a 157 61
a 157 62
a 157 64
a 157 79
a 157 87
a 157 103
a 157 111
a 157 126
a 157 139
a 157 32
a 157 48
a 157 124
a 157 132
a 157 12
a 157 81
a 157 43
a 157 102
a 157 41
a 157 78
a 157 137
a 157 125
a 157 17
a 157 53
a 157 136
a 157 71
a 157 82
a 157 63
a 145 7
a 145 11
a 145 12
a 145 16
a 145 20
a 145 30
a 145 32
a 145 36
a 145 39
a 145 40
a 145 41
a 145 48
a 145 50
a 145 53
a 145 5
a 145 57
a 145 61
a 145 64
a 145 65
a 145 114
a 145 102
a 145 116
a 145 123
a 145 78
a 145 124
a 145 80
a 145 82
a 145 132
a 145 89
a 145 92
a 145 129
a 145 110
a 145 103
a 145 104
a 145 136
a 145 134
a 145 137
a 145 139
a 145 107
a 145 130
a 145 98
a 145 1
a 145 3
a 145 4
a 145 6
a 145 9
a 145 17
a 145 21
a 145 22
a 145 25
a 145 26
a 145 141
a 145 71
a 145 31
a 145 33
a 145 23
a 145 34
a 145 73
a 145 38
a 145 42
a 145 52
a 145 56
a 145 59
a 145 60
a 145 63
a 145 66
a 145 93
a 145 67
a 145 69
a 145 35
a 145 148
a 145 79
a 145 81
a 145 83
a 145 150
a 145 85
a 145 115
a 145 87
a 145 90
a 145 95
a 145 99
a 145 100
a 145 106
a 145 111
a 145 112
a 145 117
a 145 118
a 145 119
a 145 121
a 145 122
a 145 125
a 145 126
a 145 128
a 145 135
a 145 14
a 145 160
a 145 8
a 145 19
a 145 29
a 145 37
a 145 43
a 145 47
a 145 62
a 145 113
a 145 68
a 145 147
a 145 75
a 145 162
a 145 154
a 145 108
a 145 155
a 145 55
a 145 138
a 145 2
a 145 77
a 145 58
a 145 91
a 145 88
a 145 105
a 145 84
a 145 94
a 145 18
a 145 143
a 145 127
a 145 15
a 145 140
a 145 159
a 145 74
a 145 144
a 145 164
a 145 27
a 145 46
a 145 133
a 145 54
a 145 101
a 145 146
a 145 161
a 145 151
a 145 97
a 145 152
a 145 109
