p sp 1138 2916
a 1 2
a 1 3
a 2 1
a 2 4
a 3 1
a 3 5
a 3 6
a 3 7
a 3 8
a 5 9
a 5 3
a 9 5
a 9 4
a 9 10
a 11 12
a 11 13
a 11 14
a 11 10
a 11 15
a 12 11
a 12 16
a 12 17
a 12 18
a 13 11
a 13 19
a 13 10
a 13 20
a 14 11
a 14 21
a 14 22
a 14 10
a 14 23
a 10 11
a 10 4
a 10 9
a 10 19
a 10 13
a 10 14
a 15 11
a 15 23
a 15 24
a 25 26
a 25 27
a 25 28
a 25 29
a 25 30
a 26 25
a 26 31
a 26 32
a 26 28
a 26 29
a 26 30
a 27 25
a 27 33
a 27 34
a 27 35
a 27 28
a 28 25
a 28 26
a 28 27
a 28 29
a 28 30
a 29 25
a 29 26
a 29 36
a 29 32
a 29 28
a 29 30
a 30 25
a 30 31
a 30 26
a 30 28
a 30 29
a 30 37
a 4 2
a 4 9
a 4 10
a 31 26
a 31 32
a 31 38
a 31 30
a 32 31
a 32 26
a 32 36
a 32 29
a 38 31
a 38 17
a 21 22
a 21 14
a 21 24
a 22 21
a 22 14
a 24 21
a 24 39
a 24 15
a 24 40
a 24 41
a 24 42
a 24 43
a 24 44
a 24 45
a 24 46
a 24 47
a 24 48
a 16 12
a 17 12
a 17 49
a 17 38
a 17 39
a 18 12
a 18 50
a 18 51
a 18 52
a 18 53
a 18 8
a 19 13
a 19 10
a 54 55
a 55 54
a 55 56
a 55 39
a 57 58
a 57 59
a 57 60
a 57 61
a 57 62
a 58 57
a 59 57
a 60 57
a 61 57
a 62 57
a 62 63
a 62 64
a 62 65
a 62 66
a 36 67
a 36 32
a 36 29
a 67 36
a 67 68
a 67 69
a 67 70
a 67 71
a 68 67
a 69 67
a 70 67
a 71 67
a 33 27
a 34 27
a 35 27
a 72 73
a 72 74
a 73 72
a 73 74
a 74 72
a 74 73
a 74 75
a 74 47
a 74 76
a 75 74
a 20 13
a 20 77
a 20 53
a 20 23
a 23 14
a 23 15
a 23 20
a 78 40
a 40 78
a 40 24
a 40 48
a 49 17
a 49 56
a 39 17
a 39 63
a 39 55
a 39 37
a 39 79
a 39 24
a 56 49
a 56 55
a 80 81
a 80 82
a 80 83
a 81 80
a 81 84
a 81 85
a 82 80
a 82 86
a 83 80
a 83 87
a 84 81
a 85 81
a 85 66
a 86 82
a 86 88
a 66 85
a 66 62
a 66 89
a 87 83
a 87 90
a 87 91
a 92 93
a 93 92
a 93 94
a 93 95
a 93 96
a 94 93
a 95 93
a 95 91
a 95 97
a 95 98
a 95 99
a 96 93
a 96 100
a 90 87
a 90 101
a 90 102
a 91 87
a 91 95
a 91 103
a 101 90
a 102 90
a 102 104
a 104 102
a 104 105
a 104 106
a 104 107
a 104 108
a 104 109
a 103 91
a 97 95
a 97 110
a 97 111
a 97 112
a 97 113
a 98 95
a 98 114
a 98 99
a 99 95
a 99 115
a 99 98
a 99 116
a 99 117
a 118 119
a 119 118
a 119 120
a 119 121
a 122 123
a 123 122
a 123 124
a 123 125
a 123 126
a 123 127
a 123 128
a 129 130
a 130 129
a 130 131
a 130 132
a 130 133
a 130 134
a 130 135
a 130 136
a 137 124
a 124 137
a 124 123
a 124 125
a 124 131
a 138 125
a 125 138
a 125 123
a 125 124
a 125 126
a 125 139
a 125 140
a 141 142
a 142 141
a 142 143
a 142 144
a 142 145
a 146 108
a 108 146
a 108 104
a 108 107
a 120 119
a 120 147
a 120 148
a 120 128
a 121 119
a 121 149
a 147 120
a 147 150
a 148 120
a 148 151
a 148 143
a 148 152
a 128 120
a 128 123
a 128 153
a 128 127
a 149 121
a 149 154
a 149 155
a 149 156
a 149 157
a 149 158
a 126 123
a 126 125
a 126 159
a 126 160
a 126 161
a 126 115
a 126 162
a 127 123
a 127 163
a 127 164
a 127 132
a 127 165
a 127 140
a 127 128
a 131 124
a 131 130
a 139 125
a 139 166
a 140 125
a 140 167
a 140 168
a 140 127
a 140 169
a 140 170
a 132 130
a 132 171
a 132 127
a 132 172
a 132 173
a 133 130
a 134 130
a 134 136
a 135 130
a 135 154
a 135 174
a 136 130
a 136 175
a 136 134
a 136 176
a 136 177
a 136 178
a 136 179
a 150 147
a 150 180
a 150 181
a 180 150
a 181 150
a 181 182
a 181 183
a 181 184
a 159 126
a 159 185
a 159 186
a 159 187
a 160 126
a 160 188
a 160 161
a 160 189
a 161 126
a 161 160
a 161 190
a 161 191
a 115 126
a 115 192
a 115 99
a 115 191
a 162 126
a 162 193
a 162 105
a 185 159
a 186 159
a 186 194
a 186 187
a 187 159
a 187 195
a 187 186
a 187 196
a 187 197
a 187 198
a 187 199
a 187 200
a 188 160
a 188 201
a 189 160
a 189 106
a 189 202
a 201 188
a 201 203
a 201 204
a 201 205
a 201 206
a 201 207
a 201 208
a 201 209
a 190 161
a 190 210
a 190 211
a 190 212
a 191 161
a 191 115
a 191 213
a 210 190
a 210 214
a 210 215
a 211 190
a 211 214
a 211 215
a 212 190
a 212 216
a 192 115
a 192 217
a 192 218
a 192 219
a 217 192
a 217 219
a 218 192
a 218 116
a 218 220
a 219 192
a 219 217
a 219 221
a 219 222
a 223 224
a 224 223
a 224 225
a 224 226
a 224 227
a 224 228
a 224 229
a 224 230
a 225 224
a 231 232
a 232 231
a 232 233
a 232 234
a 232 235
a 232 236
a 237 238
a 237 107
a 238 237
a 238 239
a 238 240
a 107 237
a 107 241
a 107 104
a 107 108
a 239 238
a 239 242
a 239 243
a 239 244
a 239 245
a 239 246
a 239 247
a 239 248
a 239 249
a 239 250
a 239 251
a 239 252
a 242 239
a 242 253
a 242 254
a 242 244
a 242 255
a 242 256
a 242 257
a 242 258
a 242 259
a 242 248
a 242 260
a 242 249
a 242 250
a 242 261
a 242 262
a 242 263
a 242 264
a 243 239
a 243 245
a 244 239
a 244 242
a 245 239
a 245 243
a 245 265
a 245 266
a 245 251
a 246 239
a 246 266
a 247 239
a 247 260
a 248 239
a 248 242
a 248 267
a 249 239
a 249 226
a 249 242
a 250 239
a 250 226
a 250 242
a 251 239
a 251 245
a 252 239
a 252 268
a 252 269
a 252 270
a 252 271
a 252 272
a 252 273
a 252 274
a 240 238
a 275 276
a 275 277
a 276 275
a 276 278
a 276 279
a 277 275
a 277 166
a 277 280
a 166 139
a 166 281
a 166 282
a 166 277
a 166 241
a 281 166
a 281 226
a 282 166
a 282 283
a 282 284
a 241 166
a 241 285
a 241 107
a 226 281
a 226 224
a 226 286
a 226 228
a 226 287
a 226 267
a 226 260
a 226 249
a 226 250
a 226 288
a 226 274
a 226 289
a 226 230
a 226 290
a 286 226
a 286 262
a 286 291
a 228 226
a 228 224
a 228 292
a 287 226
a 267 226
a 267 248
a 260 226
a 260 242
a 260 247
a 288 226
a 288 293
a 288 272
a 274 226
a 274 294
a 274 252
a 289 226
a 289 230
a 230 226
a 230 224
a 230 289
a 290 226
a 290 292
a 227 224
a 227 295
a 227 296
a 227 297
a 229 224
a 229 295
a 229 298
a 229 296
a 233 232
a 233 235
a 234 232
a 234 235
a 234 299
a 234 300
a 235 232
a 235 233
a 235 234
a 235 298
a 235 301
a 236 232
a 236 302
a 236 303
a 295 227
a 295 229
a 295 304
a 296 227
a 296 229
a 297 227
a 47 74
a 47 24
a 76 74
a 37 30
a 37 39
a 37 305
a 37 65
a 37 306
a 37 79
a 278 276
a 279 276
a 279 307
a 283 282
a 284 282
a 284 308
a 284 309
a 284 310
a 284 311
a 307 279
a 307 312
a 307 313
a 307 314
a 308 284
a 308 310
a 308 315
a 308 316
a 309 284
a 310 284
a 310 308
a 310 317
a 310 315
a 310 318
a 311 284
a 311 319
a 311 320
a 315 308
a 315 310
a 316 308
a 319 280
a 319 311
a 319 321
a 280 319
a 280 322
a 280 277
a 280 323
a 321 319
a 321 324
a 321 325
a 322 280
a 322 326
a 323 280
a 323 327
a 323 328
a 323 329
a 326 322
a 326 330
a 326 331
a 326 332
a 326 333
a 326 334
a 326 335
a 285 241
a 193 162
a 105 162
a 105 183
a 105 104
a 182 181
a 183 181
a 183 105
a 183 106
a 184 181
a 184 145
a 184 336
a 106 183
a 106 104
a 106 189
a 109 104
a 109 337
a 202 189
a 143 142
a 143 148
a 143 338
a 144 142
a 144 339
a 144 340
a 144 165
a 145 142
a 145 341
a 145 165
a 145 184
a 151 148
a 151 342
a 151 343
a 152 148
a 152 344
a 152 345
a 342 151
a 342 346
a 342 347
a 343 151
a 343 348
a 343 349
a 343 350
a 343 351
a 338 143
a 344 152
a 344 352
a 344 350
a 352 344
a 352 353
a 352 354
a 350 344
a 350 355
a 350 343
a 350 356
a 345 152
a 345 353
a 345 357
a 353 352
a 353 345
a 353 358
a 358 353
a 358 359
a 358 360
a 358 361
a 357 345
a 357 362
a 357 363
a 362 357
a 362 364
a 362 365
a 362 366
a 362 367
a 362 368
a 363 357
a 363 369
a 363 370
a 363 371
a 363 372
a 363 373
a 354 352
a 354 374
a 354 375
a 374 354
a 374 376
a 374 377
a 375 354
a 375 376
a 375 378
a 379 380
a 379 381
a 380 379
a 380 382
a 380 383
a 380 264
a 381 379
a 381 384
a 381 385
a 381 386
a 346 342
a 346 351
a 346 387
a 346 388
a 351 346
a 351 389
a 351 390
a 351 391
a 351 392
a 351 343
a 351 393
a 387 346
a 387 393
a 388 346
a 347 342
a 304 295
a 88 86
a 88 394
a 394 88
a 395 168
a 168 395
a 168 396
a 168 397
a 168 398
a 168 140
a 168 170
a 339 144
a 399 400
a 400 399
a 400 397
a 400 401
a 400 402
a 403 404
a 404 403
a 404 405
a 404 406
a 163 127
a 407 408
a 408 407
a 408 409
a 408 410
a 408 411
a 408 412
a 413 414
a 414 413
a 414 415
a 414 416
a 341 145
a 417 418
a 418 417
a 418 419
a 418 420
a 153 128
a 171 132
a 171 172
a 172 171
a 172 132
a 172 173
a 421 340
a 421 422
a 340 421
a 340 144
a 340 390
a 340 423
a 422 421
a 422 390
a 389 390
a 389 351
a 390 389
a 390 340
a 390 173
a 390 424
a 390 422
a 390 351
a 425 167
a 425 426
a 425 406
a 425 427
a 425 428
a 167 425
a 167 429
a 167 140
a 167 430
a 426 425
a 426 431
a 406 425
a 406 405
a 406 404
a 406 431
a 427 425
a 427 428
a 428 425
a 428 427
a 428 432
a 428 433
a 429 167
a 429 431
a 429 170
a 430 167
a 430 432
a 396 168
a 397 168
a 397 401
a 397 400
a 397 434
a 401 397
a 401 400
a 434 397
a 434 435
a 434 436
a 398 168
a 398 437
a 398 170
a 398 419
a 170 168
a 170 429
a 170 398
a 170 140
a 170 438
a 170 436
a 405 404
a 405 406
a 431 426
a 431 439
a 431 429
a 431 440
a 431 441
a 431 406
a 435 440
a 435 434
a 440 435
a 440 431
a 442 443
a 442 444
a 443 442
a 443 409
a 443 445
a 443 444
a 444 442
a 444 443
a 444 438
a 444 445
a 423 340
a 423 446
a 165 144
a 165 127
a 165 416
a 165 145
a 447 448
a 447 436
a 448 447
a 448 449
a 448 415
a 448 450
a 448 451
a 436 447
a 436 449
a 436 434
a 436 441
a 436 170
a 402 400
a 402 452
a 409 410
a 409 443
a 409 408
a 410 409
a 410 408
a 445 443
a 445 444
a 452 402
a 452 453
a 164 127
a 173 132
a 173 172
a 173 390
a 173 424
a 416 165
a 416 414
a 416 437
a 416 411
a 439 431
a 441 431
a 441 436
a 449 448
a 449 436
a 454 437
a 437 454
a 437 398
a 437 416
a 415 450
a 415 455
a 415 414
a 415 448
a 450 415
a 450 448
a 455 415
a 455 451
a 419 398
a 419 418
a 411 416
a 411 408
a 451 455
a 451 448
a 169 140
a 169 453
a 453 169
a 453 452
a 412 408
a 412 456
a 438 457
a 438 444
a 438 170
a 457 438
a 420 418
a 424 173
a 424 390
a 456 412
a 456 458
a 432 430
a 432 459
a 432 433
a 432 428
a 459 432
a 433 432
a 433 428
a 460 461
a 460 462
a 461 460
a 461 463
a 461 464
a 462 460
a 462 256
a 463 461
a 463 465
a 463 298
a 463 466
a 463 467
a 463 261
a 465 463
a 298 463
a 298 468
a 298 469
a 298 235
a 298 257
a 298 258
a 298 470
a 298 229
a 298 471
a 466 463
a 466 472
a 467 463
a 467 473
a 467 474
a 261 463
a 261 242
a 261 475
a 464 461
a 384 383
a 384 476
a 384 477
a 384 381
a 384 478
a 383 384
a 383 380
a 476 384
a 477 384
a 477 479
a 478 384
a 478 325
a 468 469
a 468 298
a 469 468
a 469 298
a 469 480
a 480 469
a 481 482
a 482 481
a 482 479
a 253 242
a 253 472
a 253 473
a 254 242
a 254 262
a 255 242
a 255 483
a 256 242
a 256 462
a 257 242
a 257 298
a 258 242
a 258 298
a 259 242
a 259 483
a 259 484
a 259 485
a 262 242
a 262 254
a 262 286
a 263 242
a 263 486
a 264 242
a 264 380
a 472 253
a 472 466
a 473 253
a 473 467
a 487 488
a 487 382
a 488 487
a 488 382
a 382 487
a 382 488
a 382 489
a 382 380
a 382 484
a 382 490
a 491 265
a 265 491
a 265 245
a 483 255
a 483 490
a 483 259
a 483 492
a 490 483
a 490 382
a 492 483
a 492 486
a 291 286
a 489 382
a 489 493
a 493 489
a 493 485
a 484 382
a 484 259
a 486 494
a 486 492
a 486 263
a 494 486
a 479 482
a 479 477
a 299 234
a 299 302
a 300 234
a 300 301
a 292 228
a 292 290
a 302 299
a 302 236
a 266 245
a 266 246
a 301 235
a 301 300
a 470 298
a 471 298
a 268 495
a 268 496
a 268 252
a 495 268
a 495 271
a 496 268
a 496 271
a 271 495
a 271 496
a 271 252
a 485 493
a 485 259
a 474 467
a 497 475
a 475 497
a 475 261
a 303 236
a 269 270
a 269 252
a 269 498
a 270 269
a 270 252
a 498 269
a 498 273
a 293 288
a 294 274
a 272 252
a 272 288
a 273 252
a 273 498
a 499 500
a 500 499
a 500 501
a 502 503
a 503 502
a 503 501
a 504 501
a 501 504
a 501 500
a 501 503
a 501 505
a 501 506
a 501 507
a 508 509
a 509 508
a 509 510
a 509 511
a 510 509
a 505 501
a 505 507
a 506 501
a 506 507
a 507 501
a 507 505
a 507 506
a 507 512
a 507 320
a 512 507
a 512 320
a 320 507
a 320 512
a 320 513
a 320 514
a 320 515
a 320 311
a 513 320
a 513 317
a 514 320
a 514 317
a 515 320
a 515 317
a 317 513
a 317 514
a 317 515
a 317 516
a 317 511
a 317 310
a 516 317
a 516 517
a 511 317
a 511 517
a 511 509
a 517 516
a 517 511
a 385 381
a 518 519
a 518 520
a 518 521
a 519 518
a 519 522
a 519 523
a 520 518
a 521 518
a 521 524
a 522 519
a 522 525
a 522 526
a 522 527
a 522 528
a 522 529
a 522 530
a 522 531
a 522 532
a 523 519
a 523 533
a 533 523
a 533 534
a 534 533
a 534 535
a 534 536
a 534 537
a 534 538
a 534 539
a 534 540
a 541 542
a 542 541
a 542 543
a 542 544
a 542 545
a 542 546
a 542 547
a 542 548
a 542 549
a 542 524
a 535 534
a 535 550
a 550 535
a 550 530
a 551 552
a 551 530
a 552 551
a 552 530
a 530 551
a 530 522
a 530 529
a 530 540
a 530 552
a 530 550
a 530 553
a 530 554
a 530 555
a 530 531
a 530 532
a 556 557
a 557 556
a 557 558
a 557 559
a 557 555
a 557 560
a 557 561
a 557 562
a 563 532
a 532 563
a 532 522
a 532 559
a 532 530
a 532 564
a 565 566
a 566 565
a 566 561
a 558 557
a 558 560
a 560 558
a 560 557
a 567 568
a 567 561
a 568 567
a 561 567
a 561 569
a 561 557
a 561 570
a 561 571
a 561 566
a 561 48
a 525 522
a 526 522
a 527 522
a 528 522
a 529 522
a 529 549
a 529 572
a 529 573
a 529 530
a 529 569
a 529 554
a 531 522
a 531 530
a 386 381
a 386 325
a 386 574
a 318 310
a 318 575
a 576 575
a 575 576
a 575 318
a 543 542
a 544 542
a 545 542
a 546 542
a 547 542
a 548 542
a 549 542
a 549 529
a 524 542
a 524 521
a 536 534
a 537 534
a 538 534
a 539 534
a 540 534
a 540 530
a 572 529
a 573 529
a 569 529
a 569 577
a 569 561
a 554 529
a 554 530
a 559 532
a 559 557
a 553 530
a 555 530
a 555 578
a 555 557
a 555 579
a 555 580
a 555 581
a 578 555
a 578 580
a 578 581
a 580 578
a 580 582
a 580 555
a 580 581
a 581 578
a 581 582
a 581 555
a 581 580
a 582 580
a 582 581
a 583 564
a 564 583
a 564 532
a 577 569
a 579 555
a 579 584
a 63 62
a 63 39
a 63 89
a 89 63
a 89 66
a 89 585
a 89 586
a 89 587
a 89 588
a 64 62
a 64 584
a 65 62
a 65 37
a 79 39
a 79 37
a 79 589
a 79 306
a 590 591
a 590 214
a 591 590
a 591 592
a 214 590
a 214 593
a 214 210
a 214 211
a 214 594
a 214 595
a 214 596
a 593 597
a 593 214
a 597 593
a 597 592
a 215 210
a 215 211
a 215 598
a 599 600
a 599 222
a 600 599
a 222 599
a 222 219
a 222 337
a 601 602
a 601 603
a 601 604
a 602 601
a 603 601
a 604 601
a 604 100
a 110 97
a 110 605
a 605 110
a 605 606
a 605 100
a 605 607
a 606 113
a 606 605
a 113 606
a 113 97
a 113 608
a 111 97
a 111 609
a 111 610
a 112 97
a 609 111
a 609 611
a 609 612
a 609 613
a 609 614
a 610 111
a 610 615
a 610 616
a 592 617
a 592 618
a 592 591
a 592 597
a 617 592
a 618 592
a 594 214
a 595 214
a 595 619
a 595 620
a 596 214
a 596 621
a 596 52
a 619 595
a 622 623
a 623 622
a 623 624
a 623 625
a 623 626
a 623 627
a 623 337
a 611 609
a 612 609
a 612 628
a 612 629
a 613 609
a 613 630
a 614 609
a 614 631
a 614 632
a 614 629
a 628 612
a 629 612
a 629 614
a 629 633
a 630 613
a 100 631
a 100 604
a 100 96
a 100 605
a 631 100
a 631 614
a 114 98
a 116 99
a 116 218
a 117 99
a 117 627
a 220 218
a 213 191
a 216 212
a 621 634
a 621 596
a 634 621
a 632 614
a 633 629
a 598 215
a 221 219
a 221 635
a 635 221
a 635 636
a 635 637
a 608 113
a 638 639
a 639 638
a 639 640
a 641 640
a 640 641
a 640 642
a 640 337
a 640 639
a 305 643
a 305 37
a 305 644
a 305 645
a 305 646
a 305 306
a 643 305
a 644 305
a 644 589
a 644 647
a 644 648
a 644 645
a 644 649
a 645 305
a 645 644
a 645 650
a 645 651
a 645 648
a 645 646
a 646 305
a 646 645
a 646 652
a 646 653
a 646 562
a 306 305
a 306 37
a 306 79
a 584 64
a 584 579
a 562 557
a 562 646
a 589 644
a 589 79
a 589 649
a 647 644
a 647 648
a 648 644
a 648 647
a 648 654
a 648 655
a 648 645
a 648 48
a 649 644
a 649 589
a 654 648
a 655 648
a 650 645
a 651 645
a 48 648
a 48 40
a 48 561
a 48 24
a 652 646
a 656 336
a 336 656
a 336 657
a 336 184
a 336 658
a 336 659
a 336 660
a 661 662
a 662 661
a 662 77
a 662 663
a 662 664
a 665 658
a 658 665
a 658 657
a 658 336
a 658 666
a 658 667
a 668 667
a 667 668
a 667 666
a 667 658
a 667 669
a 670 669
a 669 670
a 669 667
a 669 671
a 669 672
a 669 673
a 669 674
a 675 676
a 675 677
a 675 678
a 676 675
a 677 675
a 677 679
a 677 680
a 678 675
a 678 681
a 678 682
a 678 197
a 678 683
a 678 684
a 678 685
a 678 686
a 657 687
a 657 336
a 657 666
a 657 658
a 657 625
a 657 627
a 687 657
a 687 688
a 687 689
a 687 690
a 687 691
a 666 657
a 666 77
a 666 692
a 666 624
a 666 607
a 666 658
a 666 667
a 666 693
a 625 657
a 625 659
a 625 195
a 625 623
a 627 657
a 627 607
a 627 623
a 627 117
a 627 682
a 627 694
a 627 337
a 688 687
a 688 695
a 688 696
a 688 697
a 689 687
a 689 698
a 690 687
a 690 695
a 691 687
a 691 699
a 691 700
a 691 701
a 691 702
a 691 703
a 691 704
a 77 666
a 77 662
a 77 20
a 659 336
a 659 175
a 659 625
a 660 336
a 660 705
a 660 706
a 692 666
a 692 707
a 692 708
a 692 709
a 624 666
a 624 681
a 624 607
a 624 620
a 624 623
a 607 666
a 607 624
a 607 605
a 607 710
a 607 711
a 607 627
a 607 693
a 693 666
a 693 607
a 707 692
a 707 712
a 708 692
a 708 713
a 708 714
a 708 715
a 709 692
a 709 716
a 709 717
a 681 624
a 681 678
a 681 718
a 620 624
a 620 595
a 620 719
a 718 681
a 718 683
a 718 720
a 719 620
a 663 662
a 663 721
a 663 722
a 664 662
a 664 723
a 721 663
a 721 724
a 721 722
a 722 663
a 722 725
a 722 726
a 722 727
a 722 721
a 722 728
a 710 607
a 710 729
a 710 730
a 711 607
a 729 710
a 729 731
a 729 732
a 730 710
a 730 731
a 730 733
a 730 734
a 615 610
a 615 735
a 615 736
a 615 616
a 615 737
a 616 610
a 616 615
a 671 669
a 671 738
a 672 669
a 672 739
a 673 669
a 673 740
a 673 706
a 673 741
a 674 669
a 674 742
a 674 726
a 674 743
a 674 744
a 674 745
a 746 747
a 746 748
a 746 749
a 747 746
a 748 746
a 748 750
a 748 751
a 749 746
a 749 752
a 753 725
a 725 753
a 725 726
a 725 722
a 175 659
a 175 701
a 175 754
a 175 698
a 175 176
a 175 136
a 175 755
a 701 175
a 701 756
a 701 757
a 701 758
a 701 759
a 701 702
a 701 754
a 701 691
a 754 175
a 754 701
a 754 760
a 754 761
a 698 175
a 698 762
a 698 689
a 698 763
a 698 764
a 698 765
a 176 175
a 176 136
a 755 175
a 755 766
a 679 767
a 679 768
a 679 677
a 767 679
a 768 679
a 768 682
a 768 769
a 705 660
a 705 770
a 705 706
a 705 771
a 705 772
a 770 705
a 770 706
a 770 772
a 706 705
a 706 660
a 706 770
a 706 673
a 706 771
a 706 773
a 771 705
a 771 774
a 771 717
a 771 706
a 771 744
a 771 775
a 771 772
a 771 776
a 771 777
a 772 705
a 772 770
a 772 771
a 772 778
a 195 625
a 195 779
a 195 780
a 195 781
a 195 782
a 195 783
a 195 204
a 195 784
a 195 785
a 195 786
a 195 787
a 195 187
a 195 788
a 779 195
a 779 789
a 779 790
a 780 195
a 780 791
a 781 195
a 781 792
a 781 793
a 781 782
a 781 794
a 781 783
a 781 795
a 781 796
a 782 195
a 782 781
a 783 195
a 783 781
a 204 195
a 204 797
a 204 798
a 204 799
a 204 784
a 204 800
a 204 801
a 204 201
a 204 209
a 204 802
a 204 803
a 784 195
a 784 204
a 785 195
a 785 804
a 785 805
a 785 806
a 785 807
a 785 791
a 785 808
a 786 195
a 786 809
a 786 810
a 786 787
a 786 198
a 786 702
a 787 195
a 787 786
a 787 811
a 788 195
a 788 812
a 788 813
a 626 623
a 626 197
a 337 623
a 337 627
a 337 640
a 337 222
a 337 109
a 197 626
a 197 814
a 197 815
a 197 678
a 197 187
a 682 627
a 682 768
a 682 678
a 682 735
a 682 816
a 682 817
a 694 627
a 735 682
a 735 818
a 735 819
a 735 615
a 735 736
a 735 817
a 816 682
a 816 819
a 817 682
a 817 735
a 723 664
a 723 727
a 723 728
a 642 640
a 820 51
a 51 820
a 51 821
a 51 52
a 51 18
a 6 3
a 50 18
a 821 51
a 821 822
a 821 823
a 52 51
a 52 824
a 52 825
a 52 596
a 52 18
a 822 821
a 822 825
a 822 826
a 822 827
a 822 828
a 822 751
a 822 829
a 822 734
a 822 830
a 823 821
a 823 827
a 53 20
a 53 7
a 53 18
a 789 779
a 790 779
a 790 831
a 790 196
a 790 832
a 824 52
a 824 833
a 824 834
a 824 835
a 824 836
a 825 52
a 825 822
a 833 824
a 833 834
a 834 824
a 834 833
a 834 837
a 834 838
a 834 839
a 834 840
a 834 841
a 834 702
a 835 824
a 835 842
a 835 843
a 836 824
a 836 750
a 826 822
a 826 844
a 827 822
a 827 823
a 828 822
a 828 844
a 751 822
a 751 752
a 751 845
a 751 748
a 751 846
a 829 822
a 829 847
a 829 848
a 734 822
a 734 849
a 734 730
a 734 733
a 830 822
a 7 53
a 7 3
a 8 3
a 8 850
a 8 18
a 850 8
a 726 725
a 726 851
a 726 722
a 726 852
a 726 674
a 853 744
a 744 853
a 744 854
a 744 855
a 744 856
a 744 771
a 744 674
a 837 834
a 857 717
a 717 857
a 717 774
a 717 716
a 717 709
a 717 856
a 717 771
a 717 858
a 859 840
a 840 859
a 840 834
a 840 839
a 860 856
a 856 860
a 856 774
a 856 861
a 856 717
a 856 744
a 856 855
a 856 862
a 863 774
a 774 863
a 774 717
a 774 856
a 774 771
a 774 862
a 738 671
a 738 743
a 743 738
a 743 674
a 742 854
a 742 674
a 742 864
a 854 742
a 854 744
a 854 865
a 864 742
a 864 866
a 838 834
a 838 867
a 839 834
a 839 868
a 839 840
a 841 834
a 841 700
a 841 869
a 702 834
a 702 870
a 702 700
a 702 871
a 702 786
a 702 701
a 702 703
a 702 691
a 867 838
a 867 872
a 867 873
a 862 774
a 862 874
a 862 856
a 762 695
a 762 698
a 695 762
a 695 688
a 695 690
a 695 805
a 805 695
a 805 785
a 875 876
a 876 875
a 876 877
a 876 696
a 872 867
a 873 867
a 877 878
a 877 876
a 878 877
a 878 879
a 880 881
a 881 880
a 881 882
a 879 878
a 879 883
a 883 879
a 882 881
a 882 868
a 882 884
a 882 885
a 886 887
a 887 886
a 887 888
a 889 890
a 890 889
a 890 891
a 890 892
a 890 888
a 893 868
a 868 893
a 868 882
a 868 839
a 696 876
a 696 891
a 696 688
a 891 696
a 891 890
a 891 697
a 891 765
a 894 157
a 157 894
a 157 149
a 884 882
a 884 895
a 885 882
a 895 884
a 697 891
a 697 688
a 765 891
a 765 698
a 892 890
a 888 890
a 888 887
a 896 897
a 897 896
a 897 898
a 898 897
a 898 899
a 899 898
a 899 156
a 899 900
a 901 902
a 902 901
a 902 699
a 713 903
a 713 708
a 903 713
a 903 904
a 903 905
a 712 707
a 712 906
a 906 712
a 906 907
a 906 908
a 842 835
a 842 909
a 843 835
a 843 808
a 910 911
a 910 908
a 911 910
a 911 912
a 908 910
a 908 906
a 714 708
a 714 913
a 913 714
a 913 914
a 909 842
a 912 911
a 912 915
a 912 861
a 912 916
a 915 907
a 915 912
a 907 915
a 907 906
a 715 708
a 914 917
a 914 913
a 917 914
a 917 861
a 904 903
a 905 903
a 861 917
a 861 912
a 861 856
a 916 912
a 916 918
a 918 916
a 918 919
a 792 781
a 792 799
a 799 792
a 799 204
a 920 921
a 920 922
a 921 920
a 921 793
a 922 920
a 923 924
a 923 208
a 924 923
a 924 925
a 208 923
a 208 926
a 208 201
a 208 925
a 791 780
a 791 785
a 927 807
a 927 928
a 807 927
a 807 929
a 807 785
a 928 927
a 797 204
a 797 930
a 930 797
a 930 931
a 930 925
a 930 802
a 793 921
a 793 781
a 793 932
a 933 934
a 933 813
a 934 933
a 934 803
a 813 933
a 813 788
a 794 781
a 794 935
a 795 781
a 795 206
a 796 781
a 796 801
a 932 793
a 804 785
a 804 936
a 936 804
a 936 812
a 937 931
a 937 938
a 931 937
a 931 930
a 938 937
a 938 800
a 929 807
a 798 939
a 798 204
a 939 798
a 939 940
a 203 201
a 203 802
a 802 203
a 802 941
a 802 204
a 802 942
a 802 930
a 806 785
a 925 924
a 925 208
a 925 930
a 800 938
a 800 204
a 935 794
a 935 943
a 926 208
a 941 940
a 941 802
a 940 941
a 940 939
a 803 934
a 803 204
a 801 204
a 801 796
a 209 204
a 209 201
a 944 205
a 944 942
a 205 944
a 205 201
a 942 944
a 942 802
a 206 795
a 206 201
a 808 785
a 808 843
a 812 788
a 812 936
a 943 935
a 943 207
a 945 946
a 946 945
a 946 947
a 946 325
a 946 948
a 947 946
a 949 327
a 327 949
a 327 323
a 327 950
a 327 951
a 324 321
a 325 321
a 325 946
a 325 328
a 325 386
a 325 574
a 325 478
a 328 325
a 328 323
a 328 951
a 574 325
a 574 386
a 948 946
a 948 951
a 329 323
a 329 952
a 950 327
a 951 327
a 951 948
a 951 328
a 952 329
a 653 646
a 570 561
a 571 561
a 41 24
a 42 24
a 43 24
a 44 24
a 45 24
a 46 24
a 585 586
a 585 89
a 586 585
a 586 89
a 587 588
a 587 89
a 588 587
a 588 89
a 391 351
a 348 343
a 392 351
a 349 343
a 953 356
a 356 953
a 356 350
a 356 954
a 355 350
a 355 955
a 355 956
a 955 355
a 955 957
a 956 355
a 956 958
a 393 351
a 393 387
a 954 356
a 954 959
a 960 961
a 960 962
a 961 960
a 961 959
a 962 960
a 959 961
a 959 963
a 959 964
a 959 954
a 957 955
a 958 965
a 958 956
a 965 958
a 963 959
a 963 966
a 966 963
a 966 967
a 964 959
a 964 968
a 968 964
a 446 423
a 359 358
a 360 358
a 360 969
a 361 358
a 967 966
a 969 360
a 969 970
a 969 971
a 970 969
a 971 969
a 971 972
a 739 672
a 972 971
a 851 726
a 852 726
a 716 717
a 716 709
a 858 717
a 727 973
a 727 722
a 727 723
a 973 727
a 973 728
a 973 974
a 740 673
a 741 673
a 741 773
a 773 706
a 773 741
a 773 975
a 855 744
a 855 919
a 855 856
a 855 976
a 865 854
a 919 855
a 919 918
a 976 855
a 724 721
a 874 862
a 874 977
a 977 874
a 977 978
a 728 973
a 728 722
a 728 723
a 974 973
a 974 979
a 775 771
a 775 978
a 776 771
a 776 980
a 777 771
a 777 981
a 777 982
a 978 775
a 978 977
a 978 983
a 978 984
a 745 674
a 778 772
a 980 776
a 985 756
a 756 985
a 756 986
a 756 987
a 756 701
a 988 989
a 989 988
a 989 990
a 989 987
a 991 987
a 987 991
a 987 756
a 987 989
a 987 990
a 987 992
a 987 198
a 987 993
a 769 768
a 194 186
a 831 790
a 814 197
a 814 994
a 814 995
a 994 814
a 994 199
a 994 996
a 995 814
a 995 997
a 196 998
a 196 790
a 196 187
a 998 196
a 870 999
a 870 702
a 999 870
a 999 1000
a 999 1001
a 1000 999
a 1001 999
a 1001 758
a 680 677
a 986 756
a 986 759
a 815 1002
a 815 197
a 815 684
a 1002 815
a 684 815
a 684 678
a 684 1003
a 979 974
a 1004 1005
a 1004 1006
a 1004 1007
a 1005 1004
a 1006 1004
a 1006 1008
a 1006 1009
a 1007 1004
a 1007 1010
a 1007 367
a 376 374
a 376 375
a 376 1011
a 377 374
a 378 375
a 1012 1013
a 1012 1014
a 1013 1012
a 1014 1012
a 1014 1015
a 1014 1016
a 1014 1017
a 1014 1018
a 1014 1019
a 1014 364
a 1014 365
a 1014 366
a 1015 1020
a 1015 1014
a 1020 1015
a 1011 376
a 1010 1021
a 1010 1007
a 1021 1010
a 1022 1023
a 1022 1024
a 1023 1022
a 1024 1022
a 1024 1018
a 1016 1025
a 1016 1014
a 1025 1016
a 1008 1006
a 1009 1006
a 1009 1026
a 1027 1028
a 1028 1027
a 1028 370
a 370 1028
a 370 1029
a 370 1030
a 370 363
a 1031 1032
a 1031 1018
a 1031 1019
a 1032 1031
a 1018 1031
a 1018 1024
a 1018 1014
a 1019 1031
a 1019 1033
a 1019 1014
a 1029 1034
a 1029 370
a 1034 1029
a 1035 1036
a 1035 1030
a 1036 1035
a 1030 1035
a 1030 370
a 1017 1037
a 1017 1014
a 1037 1017
a 1038 1039
a 1039 1038
a 1039 371
a 1026 1009
a 1033 1019
a 364 1014
a 364 362
a 1040 367
a 367 1040
a 367 1007
a 367 362
a 365 1014
a 365 1041
a 365 362
a 1041 365
a 1041 366
a 366 1014
a 366 1041
a 366 362
a 369 363
a 371 1039
a 371 363
a 368 362
a 372 363
a 373 363
a 699 691
a 699 902
a 700 841
a 700 702
a 700 691
a 990 989
a 990 987
a 759 986
a 759 701
a 759 1042
a 1043 198
a 198 1043
a 198 809
a 198 987
a 198 786
a 198 187
a 198 1044
a 809 1045
a 809 786
a 809 198
a 1045 809
a 871 1046
a 871 810
a 871 702
a 1046 871
a 810 871
a 810 1047
a 810 786
a 757 701
a 757 704
a 757 1048
a 704 757
a 704 691
a 704 1049
a 1048 757
a 869 841
a 992 987
a 992 1050
a 993 987
a 993 1051
a 993 1052
a 683 678
a 683 718
a 1047 810
a 1050 992
a 1050 1053
a 1053 1050
a 1053 766
a 1054 1055
a 1055 1054
a 1055 1056
a 1055 1057
a 750 836
a 750 748
a 750 1058
a 1051 1059
a 1051 1057
a 1051 993
a 1059 1051
a 1057 1051
a 1057 1055
a 1056 1055
a 1056 1044
a 1056 1060
a 758 1001
a 758 701
a 832 790
a 811 787
a 685 678
a 686 678
a 686 636
a 686 1061
a 720 718
a 847 829
a 1044 198
a 1044 1056
a 1044 1062
a 199 187
a 199 994
a 200 187
a 1060 1056
a 1042 759
a 703 702
a 703 1063
a 703 691
a 1063 703
a 1062 1044
a 975 773
a 760 754
a 761 754
a 1003 684
a 1049 704
a 996 994
a 996 1064
a 996 1065
a 1064 996
a 1052 993
a 1066 636
a 636 1066
a 636 1067
a 636 686
a 636 635
a 1068 637
a 637 1068
a 637 1069
a 637 635
a 637 1070
a 818 735
a 818 1071
a 819 735
a 819 1072
a 819 816
a 736 735
a 736 615
a 1072 1069
a 1072 819
a 1072 1073
a 1069 1072
a 1069 637
a 1069 1070
a 1069 1074
a 1073 1072
a 1070 1069
a 1070 637
a 1070 1075
a 1074 1069
a 1071 818
a 1071 737
a 1065 996
a 737 615
a 737 1071
a 1067 636
a 1067 1076
a 1076 1067
a 1076 1077
a 1061 686
a 1061 1077
a 1077 1076
a 1077 1061
a 1075 1070
a 1078 844
a 844 1078
a 844 826
a 844 828
a 752 1079
a 752 751
a 752 749
a 1079 752
a 845 751
a 849 1080
a 849 1081
a 849 734
a 1080 849
a 1081 849
a 1058 750
a 731 729
a 731 730
a 846 751
a 848 829
a 732 729
a 733 730
a 733 1082
a 733 734
a 1082 733
a 1083 458
a 458 1083
a 458 1084
a 458 456
a 458 1085
a 458 1086
a 1087 1086
a 1086 1087
a 1086 1088
a 1086 458
a 1086 1089
a 1090 1091
a 1091 1090
a 1091 1092
a 1091 1089
a 1093 1094
a 1094 1093
a 1094 312
a 1094 1095
a 1088 1096
a 1088 312
a 1088 332
a 1088 333
a 1088 1097
a 1088 1086
a 1096 1088
a 312 1088
a 312 1084
a 312 307
a 312 1097
a 312 1098
a 312 1099
a 312 1094
a 332 1088
a 332 326
a 332 1100
a 333 1088
a 333 326
a 333 1101
a 1097 1088
a 1097 312
a 1097 1102
a 1103 1084
a 1084 1103
a 1084 312
a 1084 1104
a 1084 1105
a 1084 458
a 330 326
a 331 326
a 334 326
a 335 326
a 335 1106
a 335 1107
a 1106 335
a 1107 335
a 1098 312
a 1099 312
a 1095 1094
a 313 307
a 1108 1104
a 1108 1092
a 1104 1108
a 1104 1084
a 1104 1092
a 1092 1108
a 1092 1104
a 1092 1091
a 314 307
a 1100 332
a 1101 333
a 1105 1084
a 1105 1085
a 1085 1105
a 1085 458
a 1102 1097
a 1089 1091
a 1089 1086
a 207 201
a 207 943
a 1109 1110
a 1109 1111
a 1110 1109
a 1110 177
a 1111 1109
a 1111 1112
a 1113 177
a 1113 1114
a 177 1113
a 177 1110
a 177 136
a 177 1115
a 1114 1113
a 1114 1116
a 154 135
a 154 1117
a 154 1118
a 154 1112
a 154 174
a 154 1119
a 154 149
a 174 135
a 174 154
a 763 698
a 1120 1121
a 1121 1120
a 1121 1119
a 764 698
a 764 179
a 179 764
a 179 136
a 1117 154
a 1117 158
a 158 1117
a 158 149
a 1119 1121
a 1119 154
a 178 136
a 1115 177
a 1118 154
a 1112 154
a 1112 1122
a 1112 1111
a 1122 1112
a 1123 1124
a 1124 1123
a 1124 900
a 1116 1114
a 1125 1126
a 1125 1127
a 1126 1125
a 1126 1128
a 1127 1125
a 1127 155
a 1127 1129
a 866 864
a 866 1130
a 866 1131
a 1130 866
a 1130 1132
a 1131 866
a 1132 1130
a 1132 1133
a 155 149
a 155 1134
a 155 1135
a 155 1127
a 156 149
a 156 1136
a 156 899
a 1134 155
a 1135 155
a 1136 156
a 1133 1132
a 900 899
a 900 1124
a 1129 1127
a 981 1137
a 981 777
a 1137 981
a 1128 1126
a 982 777
a 983 978
a 984 978
a 997 995
a 997 1138
a 766 755
a 766 1053
a 1138 997
