p sp 685 2564
a 1 2
a 1 3
a 1 4
a 2 1
a 2 5
a 2 6
a 3 1
a 4 1
a 4 7
a 4 8
a 9 10
a 9 7
a 9 11
a 10 9
a 10 12
a 10 13
a 7 9
a 7 4
a 7 14
a 11 9
a 11 15
a 12 10
a 13 10
a 13 16
a 5 2
a 5 17
a 5 18
a 5 19
a 5 20
a 6 2
a 6 21
a 6 22
a 6 23
a 6 24
a 14 7
a 14 16
a 14 25
a 14 26
a 16 13
a 16 14
a 16 27
a 27 16
a 27 28
a 27 29
a 27 30
a 27 31
a 27 26
a 8 4
a 8 32
a 32 8
a 32 15
a 32 33
a 17 5
a 17 34
a 17 20
a 18 5
a 18 35
a 18 36
a 18 37
a 19 5
a 19 37
a 19 21
a 20 5
a 20 17
a 34 17
a 34 38
a 35 18
a 35 37
a 35 22
a 37 35
a 37 18
a 37 36
a 37 19
a 37 39
a 22 35
a 22 6
a 38 34
a 38 40
a 38 41
a 42 43
a 42 44
a 43 42
a 43 23
a 44 42
a 44 40
a 44 41
a 44 45
a 36 18
a 36 37
a 39 37
a 39 21
a 40 38
a 40 46
a 40 44
a 46 40
a 46 47
a 46 48
a 41 38
a 41 49
a 41 50
a 41 44
a 49 41
a 49 51
a 50 41
a 50 52
a 51 49
a 51 52
a 51 53
a 54 55
a 54 56
a 54 57
a 55 54
a 55 58
a 55 56
a 56 54
a 56 55
a 56 58
a 57 54
a 57 59
a 60 61
a 60 62
a 60 63
a 61 60
a 61 64
a 61 65
a 62 60
a 62 64
a 62 65
a 62 66
a 63 60
a 63 67
a 63 68
a 63 23
a 63 69
a 70 64
a 70 66
a 70 71
a 64 70
a 64 61
a 64 62
a 64 72
a 64 66
a 66 70
a 66 62
a 66 73
a 66 64
a 66 74
a 66 75
a 71 70
a 71 76
a 65 61
a 65 62
a 65 77
a 65 58
a 65 78
a 79 73
a 79 72
a 73 79
a 73 80
a 73 81
a 73 66
a 72 79
a 72 82
a 72 64
a 72 77
a 72 83
a 80 73
a 80 84
a 81 73
a 81 85
a 84 80
a 84 86
a 85 81
a 85 77
a 86 84
a 86 87
a 86 88
a 87 86
a 87 82
a 87 59
a 87 77
a 88 86
a 88 45
a 88 89
a 82 72
a 82 87
a 90 91
a 90 92
a 91 90
a 91 93
a 91 94
a 91 95
a 92 90
a 92 96
a 92 97
a 92 98
a 93 91
a 93 99
a 99 93
a 99 100
a 99 75
a 94 91
a 94 101
a 94 102
a 94 103
a 95 91
a 95 104
a 101 94
a 102 94
a 103 94
a 103 105
a 106 96
a 96 106
a 96 107
a 96 108
a 96 92
a 96 97
a 59 77
a 59 87
a 59 58
a 59 57
a 77 59
a 77 72
a 77 87
a 77 85
a 77 65
a 58 59
a 58 55
a 58 56
a 58 65
a 83 72
a 21 19
a 21 39
a 21 6
a 74 100
a 74 109
a 74 66
a 100 74
a 100 99
a 109 74
a 109 110
a 109 104
a 110 109
a 110 97
a 97 110
a 97 96
a 97 92
a 97 111
a 104 95
a 104 109
a 112 113
a 112 114
a 113 112
a 113 115
a 113 116
a 113 114
a 113 117
a 114 112
a 114 113
a 115 113
a 115 116
a 115 118
a 116 115
a 116 113
a 118 115
a 118 119
a 117 113
a 117 120
a 117 107
a 117 121
a 119 118
a 119 122
a 119 123
a 119 124
a 119 125
a 119 126
a 119 127
a 128 129
a 128 130
a 128 131
a 129 128
a 129 132
a 129 133
a 129 134
a 129 135
a 130 128
a 130 136
a 130 137
a 130 138
a 131 128
a 131 136
a 131 139
a 140 141
a 140 142
a 140 143
a 140 144
a 140 145
a 141 140
a 141 146
a 141 147
a 141 148
a 141 149
a 141 150
a 141 120
a 141 151
a 142 140
a 142 144
a 142 152
a 142 153
a 142 154
a 143 140
a 143 155
a 143 156
a 144 140
a 144 142
a 144 157
a 145 140
a 145 158
a 145 159
a 145 157
a 145 160
a 146 141
a 146 147
a 146 161
a 146 162
a 147 141
a 147 146
a 147 153
a 147 163
a 147 149
a 148 141
a 148 52
a 148 164
a 149 141
a 149 147
a 149 163
a 149 165
a 149 166
a 150 141
a 150 52
a 150 157
a 120 141
a 120 167
a 120 117
a 120 162
a 120 168
a 151 141
a 151 169
a 151 89
a 151 170
a 152 142
a 152 155
a 152 171
a 152 172
a 152 173
a 153 142
a 153 155
a 153 156
a 153 174
a 153 147
a 153 154
a 154 142
a 154 155
a 154 174
a 154 153
a 175 158
a 175 176
a 175 160
a 158 175
a 158 145
a 158 176
a 158 177
a 158 164
a 176 175
a 176 158
a 176 47
a 176 48
a 176 177
a 160 175
a 160 145
a 160 164
a 178 179
a 178 159
a 178 172
a 179 178
a 179 132
a 179 159
a 179 180
a 179 181
a 159 178
a 159 179
a 159 145
a 159 164
a 159 182
a 172 178
a 172 183
a 172 152
a 155 143
a 155 174
a 155 152
a 155 153
a 155 154
a 156 143
a 156 171
a 156 174
a 156 153
a 156 184
a 177 158
a 177 176
a 177 47
a 177 185
a 177 48
a 177 186
a 177 52
a 164 158
a 164 159
a 164 148
a 164 160
a 187 184
a 187 136
a 187 188
a 184 187
a 184 156
a 184 171
a 136 187
a 136 130
a 136 131
a 136 189
a 136 139
a 188 187
a 188 163
a 188 189
a 190 134
a 190 191
a 190 192
a 190 137
a 134 190
a 134 129
a 134 193
a 134 194
a 134 191
a 134 181
a 134 138
a 191 190
a 191 132
a 191 183
a 191 134
a 191 195
a 191 192
a 192 190
a 192 194
a 192 191
a 137 190
a 137 130
a 137 196
a 174 155
a 174 156
a 174 153
a 174 154
a 174 173
a 132 179
a 132 197
a 132 129
a 132 191
a 132 181
a 197 132
a 197 133
a 197 198
a 197 193
a 197 180
a 181 132
a 181 179
a 181 134
a 181 193
a 181 199
a 171 156
a 171 152
a 171 184
a 180 179
a 180 197
a 180 200
a 180 166
a 180 182
a 182 159
a 182 200
a 182 180
a 133 197
a 133 200
a 133 129
a 198 197
a 198 200
a 198 201
a 198 135
a 198 194
a 193 197
a 193 134
a 193 181
a 173 174
a 173 183
a 173 152
a 173 165
a 200 133
a 200 198
a 200 135
a 200 194
a 200 202
a 200 203
a 200 180
a 200 182
a 135 200
a 135 129
a 135 198
a 135 202
a 135 203
a 135 204
a 194 200
a 194 134
a 194 198
a 194 192
a 202 200
a 202 135
a 202 203
a 202 205
a 202 204
a 202 206
a 203 200
a 203 135
a 203 185
a 203 202
a 203 207
a 203 205
a 203 186
a 203 208
a 203 209
a 203 206
a 203 210
a 183 172
a 183 191
a 183 173
a 138 130
a 138 134
a 138 196
a 157 144
a 157 145
a 157 150
a 161 146
a 161 162
a 162 146
a 162 120
a 162 107
a 162 161
a 162 211
a 162 168
a 162 169
a 139 131
a 139 136
a 163 147
a 163 149
a 163 188
a 201 198
a 201 195
a 201 212
a 201 213
a 201 166
a 195 201
a 195 191
a 195 165
a 195 199
a 195 214
a 212 201
a 212 207
a 212 205
a 212 215
a 212 206
a 213 201
a 213 199
a 166 201
a 166 149
a 166 180
a 204 135
a 204 202
a 204 207
a 47 176
a 47 216
a 47 48
a 47 53
a 47 177
a 47 46
a 48 176
a 48 47
a 48 185
a 48 216
a 48 186
a 48 52
a 48 53
a 48 177
a 48 46
a 216 47
a 216 48
a 216 217
a 216 218
a 216 219
a 53 47
a 53 48
a 53 51
a 185 203
a 185 48
a 185 186
a 185 177
a 186 185
a 186 203
a 186 205
a 186 48
a 186 177
a 186 209
a 186 206
a 205 202
a 205 203
a 205 207
a 205 186
a 205 217
a 205 215
a 205 212
a 205 218
a 205 209
a 205 206
a 206 202
a 206 203
a 206 205
a 206 186
a 206 217
a 206 212
a 206 209
a 206 219
a 207 203
a 207 205
a 207 212
a 207 204
a 208 203
a 208 52
a 208 199
a 209 203
a 209 205
a 209 186
a 209 215
a 209 218
a 209 206
a 210 203
a 210 52
a 217 205
a 217 216
a 217 218
a 217 219
a 217 206
a 215 205
a 215 212
a 215 209
a 218 205
a 218 216
a 218 217
a 218 209
a 218 219
a 219 216
a 219 217
a 219 218
a 219 206
a 52 48
a 52 208
a 52 177
a 52 51
a 52 148
a 52 50
a 52 210
a 52 150
a 165 195
a 165 149
a 165 173
a 199 195
a 199 208
a 199 213
a 199 181
a 214 195
a 214 189
a 214 196
a 189 136
a 189 188
a 189 214
a 196 214
a 196 137
a 196 138
a 15 11
a 15 32
a 15 220
a 15 221
a 23 43
a 23 63
a 23 222
a 23 6
a 23 220
a 67 63
a 68 63
a 68 223
a 69 63
a 69 224
a 69 225
a 223 68
a 223 226
a 227 228
a 227 229
a 228 227
a 228 230
a 228 224
a 229 227
a 229 25
a 229 231
a 230 228
a 230 232
a 230 233
a 224 228
a 224 69
a 45 44
a 45 88
a 167 75
a 167 120
a 167 107
a 167 170
a 75 167
a 75 66
a 75 99
a 107 167
a 107 96
a 107 108
a 107 117
a 107 162
a 107 234
a 107 235
a 170 167
a 170 151
a 168 120
a 168 162
a 108 107
a 108 96
a 234 107
a 234 126
a 234 236
a 235 107
a 235 237
a 98 92
a 98 238
a 98 239
a 76 121
a 76 71
a 121 76
a 121 117
a 121 211
a 121 221
a 121 240
a 211 121
a 211 162
a 221 121
a 221 15
a 221 33
a 221 89
a 240 121
a 240 241
a 240 242
a 222 23
a 222 89
a 89 222
a 89 88
a 89 151
a 89 221
a 78 65
a 78 226
a 24 6
a 24 220
a 33 32
a 33 225
a 33 221
a 232 230
a 220 23
a 220 15
a 220 24
a 111 97
a 111 243
a 111 244
a 111 245
a 169 162
a 169 151
a 233 230
a 233 246
a 233 247
a 233 248
a 246 233
a 246 249
a 247 233
a 247 250
a 247 226
a 248 233
a 249 246
a 249 251
a 249 252
a 249 253
a 249 254
a 249 255
a 249 256
a 249 257
a 250 247
a 250 258
a 226 247
a 226 223
a 226 78
a 258 250
a 258 259
a 258 260
a 225 69
a 225 261
a 225 33
a 261 225
a 25 14
a 25 229
a 25 262
a 25 263
a 25 264
a 25 231
a 26 14
a 26 27
a 26 265
a 26 266
a 262 25
a 262 267
a 262 268
a 262 264
a 263 25
a 263 269
a 263 270
a 263 271
a 264 25
a 264 262
a 264 231
a 231 25
a 231 229
a 231 264
a 267 262
a 268 262
a 268 272
a 273 274
a 273 275
a 273 276
a 274 273
a 274 277
a 274 278
a 275 273
a 275 279
a 276 273
a 276 280
a 276 279
a 276 265
a 281 29
a 29 281
a 29 27
a 29 279
a 29 270
a 282 283
a 282 284
a 282 30
a 282 285
a 283 282
a 283 28
a 284 282
a 284 277
a 284 280
a 284 279
a 284 285
a 30 282
a 30 28
a 30 27
a 30 279
a 30 31
a 285 282
a 285 28
a 285 284
a 28 283
a 28 27
a 28 30
a 28 31
a 28 285
a 31 28
a 31 280
a 31 27
a 31 30
a 277 284
a 277 286
a 277 287
a 277 274
a 280 284
a 280 276
a 280 31
a 279 284
a 279 286
a 279 287
a 279 278
a 279 275
a 279 276
a 279 29
a 279 30
a 286 277
a 286 279
a 287 277
a 287 279
a 278 279
a 278 274
a 265 276
a 265 269
a 265 288
a 265 289
a 265 26
a 265 290
a 269 263
a 269 288
a 269 291
a 269 265
a 269 292
a 270 263
a 270 29
a 270 266
a 271 263
a 271 293
a 288 269
a 288 291
a 288 289
a 288 294
a 288 265
a 288 292
a 288 295
a 291 269
a 291 288
a 291 289
a 291 292
a 291 296
a 291 295
a 292 269
a 292 288
a 292 291
a 292 297
a 292 296
a 289 288
a 289 291
a 289 298
a 289 265
a 289 299
a 289 296
a 289 295
a 289 290
a 294 288
a 294 300
a 294 301
a 295 288
a 295 291
a 295 289
a 295 296
a 295 301
a 296 291
a 296 289
a 296 292
a 296 300
a 296 295
a 296 290
a 298 289
a 298 302
a 298 303
a 298 304
a 298 305
a 299 289
a 299 306
a 299 307
a 299 308
a 299 309
a 290 289
a 290 297
a 290 265
a 290 296
a 300 294
a 300 296
a 300 310
a 301 294
a 301 295
a 302 298
a 302 306
a 302 293
a 302 303
a 302 311
a 302 304
a 302 305
a 303 298
a 303 302
a 303 306
a 303 312
a 303 313
a 303 304
a 303 305
a 303 314
a 304 298
a 304 302
a 304 303
a 304 315
a 304 305
a 305 298
a 305 302
a 305 306
a 305 303
a 305 304
a 316 297
a 316 311
a 316 315
a 297 316
a 297 292
a 297 311
a 297 290
a 297 315
a 311 316
a 311 297
a 311 302
a 311 315
a 315 316
a 315 297
a 315 311
a 315 304
a 306 302
a 306 317
a 306 303
a 306 299
a 306 305
a 306 318
a 293 302
a 293 317
a 293 308
a 293 271
a 317 306
a 317 293
a 318 306
a 318 319
a 307 299
a 307 309
a 309 307
a 309 299
a 312 313
a 312 303
a 313 312
a 313 303
a 266 270
a 266 310
a 266 26
a 266 272
a 308 293
a 308 320
a 308 299
a 314 303
a 314 319
a 320 308
a 310 266
a 310 300
a 272 266
a 272 268
a 321 322
a 321 323
a 321 324
a 321 325
a 321 326
a 321 327
a 321 253
a 321 328
a 321 329
a 322 321
a 322 330
a 322 325
a 322 327
a 323 321
a 323 331
a 323 325
a 323 326
a 323 327
a 324 321
a 324 327
a 324 252
a 324 253
a 324 332
a 325 321
a 325 322
a 325 323
a 325 331
a 325 330
a 325 326
a 325 327
a 326 321
a 326 323
a 326 331
a 326 330
a 326 325
a 326 251
a 326 328
a 326 329
a 327 321
a 327 322
a 327 323
a 327 324
a 327 325
a 253 321
a 253 324
a 253 252
a 253 254
a 253 249
a 253 256
a 253 329
a 328 321
a 328 326
a 328 333
a 328 256
a 328 329
a 329 321
a 329 326
a 329 253
a 329 334
a 329 335
a 329 328
a 329 254
a 329 256
a 329 336
a 330 322
a 330 325
a 330 326
a 337 331
a 331 337
a 331 323
a 331 325
a 331 326
a 252 324
a 252 338
a 252 253
a 252 332
a 252 254
a 252 249
a 252 256
a 332 324
a 332 252
a 251 326
a 251 249
a 338 252
a 338 339
a 338 340
a 338 341
a 338 342
a 338 343
a 254 252
a 254 253
a 254 334
a 254 249
a 254 333
a 254 256
a 254 329
a 254 336
a 256 252
a 256 253
a 256 334
a 256 335
a 256 328
a 256 254
a 256 249
a 256 339
a 256 329
a 256 336
a 256 342
a 339 338
a 339 334
a 339 256
a 339 340
a 339 341
a 339 342
a 339 343
a 340 338
a 340 339
a 340 341
a 340 342
a 340 343
a 341 338
a 341 339
a 341 340
a 341 344
a 341 342
a 341 343
a 341 345
a 342 338
a 342 256
a 342 339
a 342 340
a 342 341
a 342 343
a 343 338
a 343 339
a 343 340
a 343 346
a 343 347
a 343 341
a 343 342
a 343 348
a 334 335
a 334 349
a 334 254
a 334 350
a 334 333
a 334 256
a 334 339
a 334 329
a 334 336
a 335 334
a 335 256
a 335 329
a 335 336
a 335 345
a 349 334
a 349 350
a 349 333
a 349 336
a 349 344
a 350 334
a 350 349
a 350 255
a 350 351
a 350 336
a 350 345
a 333 334
a 333 328
a 333 349
a 333 254
a 333 351
a 336 334
a 336 335
a 336 349
a 336 254
a 336 350
a 336 256
a 336 329
a 345 335
a 345 350
a 345 341
a 344 349
a 344 341
a 255 249
a 255 350
a 255 257
a 257 249
a 257 255
a 257 352
a 351 350
a 351 333
a 353 354
a 353 355
a 353 346
a 353 356
a 354 353
a 354 346
a 354 347
a 354 352
a 355 353
a 355 346
a 346 353
a 346 354
a 346 355
a 346 347
a 346 343
a 356 353
a 347 354
a 347 346
a 347 352
a 347 343
a 347 348
a 352 354
a 352 357
a 352 347
a 352 257
a 358 348
a 348 358
a 348 357
a 348 347
a 348 343
a 357 352
a 357 348
a 359 360
a 360 359
a 360 361
a 360 362
a 360 363
a 364 365
a 364 366
a 364 367
a 364 368
a 364 369
a 364 370
a 364 371
a 364 372
a 364 373
a 364 374
a 364 375
a 364 376
a 365 364
a 365 374
a 365 376
a 366 364
a 366 377
a 366 378
a 366 379
a 366 376
a 367 364
a 367 380
a 367 381
a 367 382
a 367 383
a 368 364
a 368 369
a 368 384
a 368 370
a 368 373
a 368 375
a 369 364
a 369 385
a 369 368
a 369 384
a 369 372
a 370 364
a 370 383
a 370 368
a 370 386
a 370 387
a 370 388
a 370 375
a 371 364
a 371 389
a 371 390
a 371 391
a 371 392
a 372 364
a 372 369
a 372 393
a 372 394
a 372 373
a 373 364
a 373 368
a 373 393
a 373 395
a 373 372
a 373 396
a 374 364
a 374 365
a 374 397
a 374 376
a 375 364
a 375 383
a 375 368
a 375 370
a 375 387
a 376 364
a 376 365
a 376 398
a 376 366
a 376 380
a 376 399
a 376 374
a 376 397
a 389 400
a 389 387
a 389 371
a 389 392
a 400 389
a 400 377
a 400 401
a 387 389
a 387 383
a 387 370
a 387 386
a 387 390
a 387 375
a 392 389
a 392 371
a 392 402
a 377 400
a 377 401
a 377 398
a 377 366
a 377 378
a 377 403
a 377 379
a 401 400
a 401 377
a 398 377
a 398 404
a 398 403
a 398 405
a 398 379
a 398 376
a 378 377
a 378 366
a 378 380
a 378 382
a 378 406
a 378 379
a 403 377
a 403 398
a 403 404
a 403 407
a 379 377
a 379 398
a 379 366
a 379 378
a 404 398
a 404 403
a 405 398
a 405 408
a 405 409
a 380 367
a 380 378
a 380 410
a 380 376
a 410 380
a 410 381
a 410 397
a 381 411
a 381 367
a 381 410
a 411 381
a 411 412
a 411 413
a 411 414
a 411 415
a 411 416
a 412 411
a 412 414
a 414 412
a 414 411
a 413 411
a 413 417
a 413 385
a 415 411
a 415 418
a 415 419
a 416 411
a 416 417
a 418 385
a 418 419
a 418 415
a 385 418
a 385 413
a 385 417
a 385 420
a 385 421
a 385 422
a 385 423
a 385 424
a 385 369
a 419 418
a 419 417
a 419 420
a 419 422
a 419 415
a 417 413
a 417 385
a 417 419
a 417 416
a 425 420
a 425 426
a 420 425
a 420 421
a 420 422
a 420 385
a 420 419
a 426 425
a 426 427
a 426 428
a 426 429
a 421 420
a 421 385
a 422 420
a 422 385
a 422 419
a 423 385
a 423 424
a 423 384
a 423 430
a 424 385
a 424 423
a 424 384
a 384 423
a 384 424
a 384 368
a 384 369
a 384 431
a 384 432
a 384 394
a 430 423
a 430 433
a 430 434
a 430 432
a 430 435
a 430 436
a 430 429
a 382 367
a 382 383
a 382 378
a 383 367
a 383 382
a 383 427
a 383 370
a 383 387
a 383 437
a 383 438
a 383 375
a 427 383
a 427 426
a 437 383
a 438 383
a 438 259
a 438 388
a 431 384
a 431 433
a 432 384
a 432 430
a 432 394
a 394 384
a 394 432
a 394 372
a 394 439
a 394 440
a 394 441
a 433 431
a 433 430
a 428 426
a 428 434
a 428 442
a 429 426
a 429 430
a 434 430
a 434 443
a 434 428
a 434 444
a 435 430
a 435 445
a 436 430
a 436 445
a 445 443
a 445 446
a 445 444
a 445 447
a 445 435
a 445 436
a 443 445
a 443 434
a 446 445
a 444 445
a 444 434
a 444 439
a 444 448
a 444 449
a 447 445
a 447 449
a 442 428
a 442 450
a 442 451
a 442 452
a 393 453
a 393 454
a 393 455
a 393 456
a 393 372
a 393 388
a 393 373
a 453 393
a 453 386
a 454 393
a 454 390
a 454 455
a 454 457
a 454 388
a 455 393
a 455 454
a 455 458
a 455 457
a 455 459
a 455 388
a 456 393
a 456 460
a 388 393
a 388 370
a 388 386
a 388 390
a 388 454
a 388 455
a 388 457
a 388 459
a 388 438
a 386 453
a 386 370
a 386 387
a 386 388
a 390 387
a 390 391
a 390 371
a 390 454
a 390 388
a 391 390
a 391 371
a 402 392
a 402 461
a 461 402
a 461 361
a 461 457
a 457 454
a 457 455
a 457 461
a 457 388
a 458 455
a 458 460
a 459 455
a 459 460
a 459 396
a 459 462
a 459 440
a 459 463
a 459 441
a 459 388
a 460 458
a 460 456
a 460 395
a 460 440
a 460 459
a 395 460
a 395 373
a 440 460
a 440 394
a 440 396
a 440 462
a 440 463
a 440 459
a 440 441
a 464 450
a 450 464
a 450 442
a 450 465
a 450 466
a 450 467
a 450 468
a 439 394
a 439 448
a 439 444
a 439 469
a 439 470
a 439 467
a 439 468
a 441 394
a 441 396
a 441 462
a 441 440
a 441 463
a 441 459
a 441 471
a 451 442
a 451 396
a 451 259
a 452 442
a 452 468
a 448 439
a 448 444
a 469 439
a 469 449
a 470 439
a 470 467
a 470 468
a 467 439
a 467 450
a 467 470
a 467 472
a 467 473
a 468 439
a 468 450
a 468 470
a 468 474
a 468 452
a 465 450
a 465 474
a 466 450
a 466 475
a 466 474
a 466 472
a 466 396
a 474 465
a 474 466
a 474 396
a 474 468
a 449 444
a 449 447
a 449 469
a 475 466
a 396 474
a 396 466
a 396 472
a 396 451
a 396 476
a 396 462
a 396 440
a 396 463
a 396 459
a 396 441
a 396 373
a 472 466
a 472 467
a 472 396
a 473 467
a 473 476
a 476 473
a 476 396
a 476 462
a 476 477
a 259 451
a 259 478
a 259 258
a 259 438
a 462 396
a 462 476
a 462 440
a 462 459
a 462 441
a 463 396
a 463 440
a 463 479
a 463 459
a 463 478
a 463 441
a 477 476
a 477 480
a 480 477
a 480 471
a 471 480
a 471 478
a 471 441
a 471 481
a 471 482
a 361 461
a 361 479
a 361 360
a 479 361
a 479 463
a 478 463
a 478 362
a 478 259
a 478 471
a 478 483
a 478 484
a 362 478
a 362 360
a 483 478
a 483 484
a 484 478
a 484 483
a 484 481
a 484 482
a 363 360
a 363 485
a 363 482
a 481 471
a 481 484
a 481 485
a 481 482
a 482 471
a 482 484
a 482 481
a 482 485
a 482 363
a 482 486
a 482 487
a 485 481
a 485 363
a 485 482
a 485 488
a 488 485
a 486 482
a 486 260
a 487 482
a 487 489
a 487 260
a 260 486
a 260 487
a 260 258
a 489 487
a 489 490
a 490 489
a 406 378
a 406 491
a 491 406
a 491 492
a 491 493
a 399 397
a 399 376
a 397 399
a 397 374
a 397 410
a 397 376
a 407 403
a 407 409
a 407 494
a 408 405
a 408 409
a 409 408
a 409 405
a 409 495
a 409 496
a 409 407
a 497 498
a 497 244
a 497 499
a 498 497
a 498 500
a 498 501
a 244 497
a 244 502
a 244 500
a 244 503
a 244 111
a 499 497
a 499 504
a 499 505
a 499 506
a 499 507
a 508 495
a 508 509
a 508 510
a 495 508
a 495 409
a 495 511
a 509 508
a 509 511
a 509 512
a 509 503
a 509 496
a 509 493
a 510 508
a 510 512
a 510 513
a 510 514
a 510 515
a 516 517
a 516 243
a 516 518
a 517 516
a 517 502
a 243 516
a 243 519
a 243 502
a 243 500
a 243 111
a 518 516
a 518 519
a 520 521
a 520 522
a 520 523
a 520 524
a 521 520
a 521 522
a 521 525
a 521 526
a 521 527
a 522 520
a 522 521
a 522 528
a 522 529
a 523 520
a 523 500
a 523 530
a 524 520
a 524 527
a 524 530
a 525 521
a 525 504
a 525 531
a 525 532
a 525 533
a 525 534
a 525 506
a 525 526
a 526 521
a 526 525
a 526 535
a 527 521
a 527 536
a 527 524
a 528 522
a 528 529
a 528 537
a 529 522
a 529 528
a 529 538
a 500 523
a 500 243
a 500 498
a 500 244
a 530 523
a 530 524
a 530 501
a 496 409
a 496 509
a 496 514
a 502 517
a 502 243
a 502 244
a 502 503
a 502 105
a 511 495
a 511 509
a 511 105
a 105 511
a 105 502
a 105 103
a 519 243
a 519 539
a 519 518
a 539 519
a 539 540
a 539 541
a 539 239
a 503 502
a 503 244
a 503 509
a 503 512
a 503 245
a 501 498
a 501 530
a 501 542
a 501 543
a 540 544
a 540 539
a 540 545
a 544 540
a 544 546
a 544 547
a 544 548
a 545 540
a 545 238
a 512 509
a 512 503
a 512 510
a 512 513
a 512 515
a 493 509
a 493 491
a 493 245
a 549 550
a 549 551
a 549 506
a 550 549
a 550 551
a 550 552
a 551 549
a 551 550
a 551 513
a 551 515
a 551 507
a 506 549
a 506 525
a 506 499
a 238 541
a 238 545
a 238 98
a 541 238
a 541 539
a 541 553
a 541 548
a 554 546
a 554 555
a 554 556
a 554 538
a 554 557
a 546 554
a 546 544
a 546 558
a 546 538
a 555 554
a 555 547
a 555 559
a 555 556
a 556 554
a 556 555
a 556 559
a 538 554
a 538 529
a 538 546
a 538 560
a 538 561
a 538 562
a 538 563
a 557 554
a 557 564
a 537 528
a 537 559
a 513 512
a 513 551
a 513 510
a 513 552
a 513 505
a 513 565
a 513 566
a 513 567
a 513 514
a 513 515
a 513 568
a 515 512
a 515 551
a 515 510
a 515 513
a 515 569
a 547 544
a 547 555
a 548 544
a 548 541
a 548 570
a 553 541
a 553 239
a 553 542
a 552 550
a 552 513
a 552 533
a 245 503
a 245 111
a 245 569
a 245 493
a 558 546
a 558 564
a 558 571
a 558 572
a 558 573
a 558 574
a 239 539
a 239 553
a 239 98
a 507 551
a 507 499
a 507 569
a 514 510
a 514 496
a 514 513
a 559 555
a 559 556
a 559 537
a 559 560
a 559 561
a 504 525
a 504 499
a 504 575
a 504 576
a 531 525
a 531 577
a 531 578
a 532 525
a 532 579
a 532 580
a 532 534
a 532 575
a 533 525
a 533 552
a 533 534
a 534 525
a 534 532
a 534 533
a 575 504
a 575 581
a 575 532
a 576 504
a 576 582
a 576 578
a 505 513
a 505 499
a 505 569
a 565 513
a 565 580
a 565 566
a 565 567
a 565 583
a 565 568
a 565 584
a 566 513
a 566 565
a 566 584
a 567 513
a 567 565
a 567 494
a 567 585
a 567 586
a 567 568
a 568 513
a 568 565
a 568 567
a 568 587
a 568 492
a 581 582
a 581 575
a 581 588
a 581 589
a 582 581
a 582 590
a 582 536
a 582 576
a 588 581
a 588 583
a 588 589
a 588 587
a 589 581
a 589 591
a 589 588
a 569 505
a 569 515
a 569 507
a 569 245
a 580 565
a 580 532
a 580 583
a 580 584
a 583 565
a 583 579
a 583 580
a 583 588
a 584 565
a 584 580
a 584 566
a 592 585
a 592 591
a 592 593
a 585 592
a 585 567
a 591 592
a 591 579
a 591 589
a 593 592
a 593 594
a 593 595
a 593 590
a 596 535
a 535 596
a 535 526
a 535 577
a 535 597
a 577 531
a 577 594
a 577 535
a 577 578
a 578 531
a 578 595
a 578 577
a 578 576
a 579 532
a 579 591
a 579 583
a 494 407
a 494 567
a 586 567
a 594 593
a 594 577
a 597 535
a 595 593
a 595 578
a 590 582
a 590 593
a 536 582
a 536 527
a 492 491
a 492 568
a 542 553
a 542 598
a 542 501
a 587 588
a 587 568
a 564 558
a 564 557
a 560 559
a 560 538
a 561 559
a 561 538
a 599 600
a 599 601
a 599 602
a 599 603
a 599 604
a 599 605
a 599 236
a 600 599
a 600 606
a 601 599
a 601 607
a 601 241
a 602 599
a 602 573
a 602 608
a 602 609
a 603 599
a 603 610
a 603 598
a 603 237
a 603 611
a 604 599
a 604 123
a 604 241
a 605 599
a 605 612
a 236 599
a 236 234
a 606 600
a 606 613
a 606 614
a 606 611
a 615 616
a 615 610
a 615 617
a 615 618
a 615 619
a 616 615
a 616 620
a 616 621
a 616 613
a 616 622
a 616 623
a 616 624
a 610 615
a 610 625
a 610 613
a 610 626
a 610 603
a 610 627
a 610 628
a 610 629
a 610 630
a 617 615
a 617 631
a 617 622
a 617 632
a 618 615
a 618 632
a 618 633
a 619 615
a 619 634
a 619 237
a 620 616
a 620 635
a 620 636
a 620 637
a 620 638
a 621 616
a 621 638
a 621 639
a 613 616
a 613 610
a 613 637
a 613 633
a 613 606
a 622 616
a 622 617
a 622 640
a 622 641
a 622 642
a 623 616
a 623 636
a 623 643
a 624 616
a 624 640
a 624 644
a 625 610
a 625 572
a 625 645
a 625 646
a 626 610
a 626 562
a 626 647
a 626 648
a 626 649
a 627 610
a 627 571
a 627 645
a 628 610
a 628 645
a 628 650
a 629 610
a 629 242
a 630 610
a 630 645
a 630 650
a 607 601
a 607 608
a 607 651
a 607 652
a 241 601
a 241 598
a 241 240
a 241 604
a 598 542
a 598 603
a 598 241
a 598 570
a 598 653
a 570 598
a 570 654
a 570 543
a 570 548
a 653 598
a 543 501
a 543 570
a 571 631
a 571 558
a 571 655
a 571 627
a 631 571
a 631 656
a 631 657
a 631 617
a 655 571
a 655 658
a 655 574
a 572 573
a 572 558
a 572 625
a 572 659
a 573 572
a 573 602
a 573 612
a 573 558
a 573 637
a 659 572
a 659 574
a 659 660
a 656 631
a 656 661
a 656 651
a 656 632
a 656 634
a 657 631
a 657 651
a 657 662
a 657 237
a 612 573
a 612 608
a 612 663
a 612 664
a 612 605
a 637 573
a 637 620
a 637 613
a 637 664
a 608 602
a 608 612
a 608 663
a 608 652
a 608 607
a 609 602
a 609 122
a 609 123
a 663 608
a 663 612
a 663 661
a 663 651
a 663 665
a 663 666
a 663 614
a 652 608
a 652 651
a 652 607
a 652 237
a 664 612
a 664 637
a 664 632
a 664 633
a 661 656
a 661 663
a 651 656
a 651 657
a 651 663
a 651 652
a 651 607
a 632 656
a 632 617
a 632 664
a 632 618
a 634 656
a 634 619
a 662 657
a 662 124
a 662 127
a 237 657
a 237 603
a 237 652
a 237 235
a 237 666
a 237 619
a 237 127
a 237 611
a 665 663
a 665 667
a 665 668
a 666 663
a 666 237
a 614 663
a 614 606
a 667 665
a 667 669
a 667 668
a 668 665
a 668 667
a 668 124
a 668 125
a 669 122
a 669 667
a 669 670
a 122 669
a 122 119
a 122 660
a 122 609
a 670 669
a 660 122
a 660 659
a 660 126
a 658 655
a 658 124
a 658 126
a 124 658
a 124 662
a 124 119
a 124 668
a 126 658
a 126 119
a 126 234
a 126 660
a 574 558
a 574 659
a 574 655
a 127 662
a 127 119
a 127 237
a 645 625
a 645 671
a 645 627
a 645 628
a 645 630
a 646 625
a 646 672
a 646 673
a 635 674
a 635 620
a 674 635
a 674 636
a 674 675
a 674 643
a 674 644
a 636 674
a 636 620
a 636 623
a 675 674
a 675 676
a 675 677
a 643 674
a 643 678
a 643 623
a 643 677
a 644 674
a 644 679
a 644 678
a 644 624
a 638 620
a 638 621
a 638 676
a 639 621
a 639 679
a 639 680
a 639 677
a 679 644
a 679 639
a 679 681
a 681 679
a 681 682
a 681 678
a 676 675
a 676 671
a 676 638
a 677 675
a 677 643
a 677 639
a 671 676
a 671 682
a 671 645
a 671 672
a 671 650
a 682 671
a 682 641
a 682 681
a 641 682
a 641 622
a 641 683
a 672 671
a 672 673
a 672 646
a 672 647
a 650 671
a 650 647
a 650 680
a 650 628
a 650 630
a 633 613
a 633 664
a 633 618
a 673 672
a 673 646
a 673 562
a 673 563
a 647 672
a 647 626
a 647 650
a 562 673
a 562 538
a 562 563
a 562 626
a 563 673
a 563 562
a 563 538
a 678 640
a 678 643
a 678 644
a 678 681
a 678 642
a 640 678
a 640 622
a 640 624
a 642 678
a 642 622
a 648 626
a 648 649
a 649 626
a 649 648
a 680 650
a 680 639
a 680 683
a 683 680
a 683 641
a 611 603
a 611 654
a 611 237
a 611 606
a 123 119
a 123 604
a 123 609
a 125 119
a 125 668
a 242 240
a 242 629
a 242 684
a 654 570
a 654 685
a 654 611
a 684 242
a 684 685
a 685 654
a 685 684
a 319 318
a 319 314
