p sp 1174 17374
a 1 2
a 1 3
a 1 4
a 1 5
a 1 6
a 1 7
a 1 8
a 1 9
a 1 10
a 1 11
a 1 12
a 1 13
a 1 14
a 1 15
a 1 16
a 1 17
a 1 18
a 1 19
a 1 20
a 2 1
a 3 1
a 3 21
a 3 22
a 3 23
a 3 24
a 3 25
a 3 4
a 3 26
a 3 27
a 3 28
a 3 29
a 3 30
a 3 31
a 3 32
a 3 33
a 3 34
a 3 35
a 3 36
a 3 37
a 3 38
a 3 39
a 3 40
a 3 41
a 3 42
a 3 43
a 3 44
a 3 45
a 3 46
a 3 47
a 3 48
a 3 49
a 3 50
a 3 51
a 3 52
a 3 53
a 3 54
a 3 55
a 3 56
a 3 57
a 3 58
a 3 59
a 3 60
a 3 61
a 3 62
a 3 63
a 3 64
a 3 65
a 3 66
a 3 67
a 3 68
a 3 69
a 4 1
a 4 3
a 4 21
a 4 22
a 4 23
a 4 24
a 4 25
a 4 26
a 4 27
a 4 28
a 4 29
a 4 30
a 4 31
a 4 32
a 4 33
a 4 34
a 4 35
a 4 36
a 4 37
a 4 38
a 4 39
a 4 40
a 4 41
a 4 42
a 4 43
a 4 44
a 4 45
a 4 46
a 4 47
a 4 48
a 4 49
a 4 50
a 4 51
a 4 52
a 4 53
a 4 54
a 4 55
a 4 56
a 4 57
a 4 58
a 4 59
a 4 60
a 4 61
a 4 62
a 4 63
a 4 64
a 4 65
a 4 66
a 4 67
a 4 68
a 4 69
a 5 1
a 5 70
a 6 1
a 6 27
a 6 7
a 6 11
a 6 71
a 6 72
a 6 73
a 7 1
a 7 6
a 8 1
a 8 72
a 9 1
a 9 10
a 10 1
a 10 9
a 10 74
a 10 75
a 10 76
a 10 77
a 10 78
a 10 79
a 10 80
a 11 1
a 11 6
a 12 1
a 12 73
a 13 1
a 13 81
a 14 1
a 14 22
a 14 15
a 14 19
a 14 82
a 14 83
a 14 84
a 15 1
a 15 14
a 16 1
a 16 83
a 17 1
a 17 18
a 18 1
a 18 17
a 18 85
a 18 86
a 18 87
a 18 88
a 18 89
a 18 90
a 18 91
a 19 1
a 19 14
a 20 1
a 20 84
a 21 3
a 21 22
a 21 23
a 21 24
a 21 25
a 21 4
a 21 26
a 21 27
a 21 28
a 21 29
a 21 30
a 21 31
a 21 32
a 21 33
a 21 34
a 21 35
a 21 36
a 21 37
a 21 38
a 21 39
a 21 40
a 21 41
a 21 42
a 21 43
a 21 44
a 21 45
a 21 46
a 21 47
a 21 48
a 21 49
a 21 50
a 21 51
a 21 52
a 21 53
a 21 54
a 21 55
a 21 56
a 21 57
a 21 58
a 21 59
a 21 60
a 21 61
a 21 62
a 21 63
a 21 64
a 21 65
a 21 66
a 21 67
a 21 68
a 21 69
a 21 92
a 21 93
a 21 94
a 21 95
a 21 96
a 21 97
a 21 98
a 21 99
a 22 3
a 22 21
a 22 23
a 22 24
a 22 25
a 22 4
a 22 26
a 22 27
a 22 28
a 22 29
a 22 30
a 22 31
a 22 32
a 22 33
a 22 34
a 22 35
a 22 36
a 22 37
a 22 38
a 22 39
a 22 40
a 22 41
a 22 42
a 22 43
a 22 44
a 22 45
a 22 46
a 22 47
a 22 48
a 22 49
a 22 50
a 22 51
a 22 52
a 22 53
a 22 54
a 22 55
a 22 56
a 22 57
a 22 58
a 22 59
a 22 60
a 22 61
a 22 62
a 22 63
a 22 64
a 22 65
a 22 66
a 22 67
a 22 68
a 22 69
a 22 14
a 23 3
a 23 21
a 23 22
a 23 24
a 23 25
a 23 4
a 23 26
a 23 27
a 23 28
a 23 29
a 23 30
a 23 31
a 23 32
a 23 33
a 23 34
a 23 35
a 23 36
a 23 37
a 23 38
a 23 39
a 23 40
a 23 41
a 23 42
a 23 43
a 23 44
a 23 45
a 23 46
a 23 47
a 23 48
a 23 49
a 23 50
a 23 51
a 23 52
a 23 53
a 23 54
a 23 55
a 23 56
a 23 57
a 23 58
a 23 59
a 23 60
a 23 61
a 23 62
a 23 63
a 23 64
a 23 65
a 23 66
a 23 67
a 23 68
a 23 69
a 23 92
a 23 93
a 23 94
a 23 95
a 23 96
a 23 97
a 23 98
a 23 99
a 24 3
a 24 21
a 24 22
a 24 23
a 24 25
a 24 4
a 24 26
a 24 27
a 24 28
a 24 29
a 24 30
a 24 31
a 24 32
a 24 33
a 24 34
a 24 35
a 24 36
a 24 37
a 24 38
a 24 39
a 24 40
a 24 41
a 24 42
a 24 43
a 24 44
a 24 45
a 24 46
a 24 47
a 24 48
a 24 49
a 24 50
a 24 51
a 24 52
a 24 53
a 24 54
a 24 55
a 24 56
a 24 57
a 24 58
a 24 59
a 24 60
a 24 61
a 24 62
a 24 63
a 24 64
a 24 65
a 24 66
a 24 67
a 24 68
a 24 69
a 25 3
a 25 21
a 25 22
a 25 23
a 25 24
a 25 4
a 25 26
a 25 27
a 25 28
a 25 29
a 25 30
a 25 31
a 25 32
a 25 33
a 25 34
a 25 35
a 25 36
a 25 37
a 25 38
a 25 39
a 25 40
a 25 41
a 25 42
a 25 43
a 25 44
a 25 45
a 25 46
a 25 47
a 25 48
a 25 49
a 25 50
a 25 51
a 25 52
a 25 53
a 25 54
a 25 55
a 25 56
a 25 57
a 25 58
a 25 59
a 25 60
a 25 61
a 25 62
a 25 63
a 25 64
a 25 65
a 25 66
a 25 67
a 25 68
a 25 69
a 26 3
a 26 21
a 26 22
a 26 23
a 26 24
a 26 25
a 26 4
a 26 27
a 26 28
a 26 29
a 26 30
a 26 31
a 26 32
a 26 33
a 26 34
a 26 35
a 26 36
a 26 37
a 26 38
a 26 39
a 26 40
a 26 41
a 26 42
a 26 43
a 26 44
a 26 45
a 26 46
a 26 47
a 26 48
a 26 49
a 26 50
a 26 51
a 26 52
a 26 53
a 26 54
a 26 55
a 26 56
a 26 57
a 26 58
a 26 59
a 26 60
a 26 61
a 26 62
a 26 63
a 26 64
a 26 65
a 26 66
a 26 67
a 26 68
a 26 69
a 26 92
a 26 93
a 26 94
a 26 95
a 26 96
a 26 97
a 26 98
a 26 99
a 27 3
a 27 21
a 27 22
a 27 23
a 27 24
a 27 25
a 27 4
a 27 26
a 27 28
a 27 29
a 27 30
a 27 31
a 27 32
a 27 33
a 27 34
a 27 35
a 27 36
a 27 37
a 27 38
a 27 39
a 27 40
a 27 41
a 27 42
a 27 43
a 27 44
a 27 45
a 27 46
a 27 47
a 27 48
a 27 49
a 27 50
a 27 51
a 27 52
a 27 53
a 27 54
a 27 55
a 27 56
a 27 57
a 27 58
a 27 59
a 27 60
a 27 61
a 27 62
a 27 63
a 27 64
a 27 65
a 27 66
a 27 67
a 27 68
a 27 69
a 27 6
a 28 3
a 28 21
a 28 22
a 28 23
a 28 24
a 28 25
a 28 4
a 28 26
a 28 27
a 28 29
a 28 30
a 28 31
a 28 32
a 28 33
a 28 34
a 28 35
a 28 36
a 28 37
a 28 38
a 28 39
a 28 40
a 28 41
a 28 42
a 28 43
a 28 44
a 28 45
a 28 46
a 28 47
a 28 48
a 28 49
a 28 50
a 28 51
a 28 52
a 28 53
a 28 54
a 28 55
a 28 56
a 28 57
a 28 58
a 28 59
a 28 60
a 28 61
a 28 62
a 28 63
a 28 64
a 28 65
a 28 66
a 28 67
a 28 68
a 28 69
a 28 92
a 28 93
a 28 94
a 28 95
a 28 96
a 28 97
a 28 98
a 28 99
a 29 3
a 29 21
a 29 22
a 29 23
a 29 24
a 29 25
a 29 4
a 29 26
a 29 27
a 29 28
a 29 30
a 29 31
a 29 32
a 29 33
a 29 34
a 29 35
a 29 36
a 29 37
a 29 38
a 29 39
a 29 40
a 29 41
a 29 42
a 29 43
a 29 44
a 29 45
a 29 46
a 29 47
a 29 48
a 29 49
a 29 50
a 29 51
a 29 52
a 29 53
a 29 54
a 29 55
a 29 56
a 29 57
a 29 58
a 29 59
a 29 60
a 29 61
a 29 62
a 29 63
a 29 64
a 29 65
a 29 66
a 29 67
a 29 68
a 29 69
a 30 3
a 30 21
a 30 22
a 30 23
a 30 24
a 30 25
a 30 4
a 30 26
a 30 27
a 30 28
a 30 29
a 30 31
a 30 32
a 30 33
a 30 34
a 30 35
a 30 36
a 30 37
a 30 38
a 30 39
a 30 40
a 30 41
a 30 42
a 30 43
a 30 44
a 30 45
a 30 46
a 30 47
a 30 48
a 30 49
a 30 50
a 30 51
a 30 52
a 30 53
a 30 54
a 30 55
a 30 56
a 30 57
a 30 58
a 30 59
a 30 60
a 30 61
a 30 62
a 30 63
a 30 64
a 30 65
a 30 66
a 30 67
a 30 68
a 30 69
a 31 3
a 31 21
a 31 22
a 31 23
a 31 24
a 31 25
a 31 4
a 31 26
a 31 27
a 31 28
a 31 29
a 31 30
a 31 32
a 31 33
a 31 34
a 31 35
a 31 36
a 31 37
a 31 38
a 31 39
a 31 40
a 31 41
a 31 42
a 31 43
a 31 44
a 31 45
a 31 46
a 31 47
a 31 48
a 31 49
a 31 50
a 31 51
a 31 52
a 31 53
a 31 54
a 31 55
a 31 56
a 31 57
a 31 58
a 31 59
a 31 60
a 31 61
a 31 62
a 31 63
a 31 64
a 31 65
a 31 66
a 31 67
a 31 68
a 31 69
a 32 3
a 32 21
a 32 22
a 32 23
a 32 24
a 32 25
a 32 4
a 32 26
a 32 27
a 32 28
a 32 29
a 32 30
a 32 31
a 32 33
a 32 34
a 32 35
a 32 36
a 32 37
a 32 38
a 32 39
a 32 40
a 32 41
a 32 42
a 32 43
a 32 44
a 32 45
a 32 46
a 32 47
a 32 48
a 32 49
a 32 50
a 32 51
a 32 52
a 32 53
a 32 54
a 32 55
a 32 56
a 32 57
a 32 58
a 32 59
a 32 60
a 32 61
a 32 62
a 32 63
a 32 64
a 32 65
a 32 66
a 32 67
a 32 68
a 32 69
a 33 3
a 33 21
a 33 22
a 33 23
a 33 24
a 33 25
a 33 4
a 33 26
a 33 27
a 33 28
a 33 29
a 33 30
a 33 31
a 33 32
a 33 34
a 33 35
a 33 36
a 33 37
a 33 38
a 33 39
a 33 40
a 33 41
a 33 42
a 33 43
a 33 44
a 33 45
a 33 46
a 33 47
a 33 48
a 33 49
a 33 50
a 33 51
a 33 52
a 33 53
a 33 54
a 33 55
a 33 56
a 33 57
a 33 58
a 33 59
a 33 60
a 33 61
a 33 62
a 33 63
a 33 64
a 33 65
a 33 66
a 33 67
a 33 68
a 33 69
a 33 100
a 33 101
a 33 102
a 33 103
a 33 104
a 33 105
a 33 106
a 33 107
a 33 108
a 34 3
a 34 21
a 34 22
a 34 23
a 34 24
a 34 25
a 34 4
a 34 26
a 34 27
a 34 28
a 34 29
a 34 30
a 34 31
a 34 32
a 34 33
a 34 35
a 34 36
a 34 37
a 34 38
a 34 39
a 34 40
a 34 41
a 34 42
a 34 43
a 34 44
a 34 45
a 34 46
a 34 47
a 34 48
a 34 49
a 34 50
a 34 51
a 34 52
a 34 53
a 34 54
a 34 55
a 34 56
a 34 57
a 34 58
a 34 59
a 34 60
a 34 61
a 34 62
a 34 63
a 34 64
a 34 65
a 34 66
a 34 67
a 34 68
a 34 69
a 34 109
a 34 110
a 34 111
a 34 112
a 35 3
a 35 21
a 35 22
a 35 23
a 35 24
a 35 25
a 35 4
a 35 26
a 35 27
a 35 28
a 35 29
a 35 30
a 35 31
a 35 32
a 35 33
a 35 34
a 35 36
a 35 37
a 35 38
a 35 39
a 35 40
a 35 41
a 35 42
a 35 43
a 35 44
a 35 45
a 35 46
a 35 47
a 35 48
a 35 49
a 35 50
a 35 51
a 35 52
a 35 53
a 35 54
a 35 55
a 35 56
a 35 57
a 35 58
a 35 59
a 35 60
a 35 61
a 35 62
a 35 63
a 35 64
a 35 65
a 35 66
a 35 67
a 35 68
a 35 69
a 35 101
a 36 3
a 36 21
a 36 22
a 36 23
a 36 24
a 36 25
a 36 4
a 36 26
a 36 27
a 36 28
a 36 29
a 36 30
a 36 31
a 36 32
a 36 33
a 36 34
a 36 35
a 36 37
a 36 38
a 36 39
a 36 40
a 36 41
a 36 42
a 36 43
a 36 44
a 36 45
a 36 46
a 36 47
a 36 48
a 36 49
a 36 50
a 36 51
a 36 52
a 36 53
a 36 54
a 36 55
a 36 56
a 36 57
a 36 58
a 36 59
a 36 60
a 36 61
a 36 62
a 36 63
a 36 64
a 36 65
a 36 66
a 36 67
a 36 68
a 36 69
a 36 109
a 36 110
a 36 111
a 36 112
a 37 3
a 37 21
a 37 22
a 37 23
a 37 24
a 37 25
a 37 4
a 37 26
a 37 27
a 37 28
a 37 29
a 37 30
a 37 31
a 37 32
a 37 33
a 37 34
a 37 35
a 37 36
a 37 38
a 37 39
a 37 40
a 37 41
a 37 42
a 37 43
a 37 44
a 37 45
a 37 46
a 37 47
a 37 48
a 37 49
a 37 50
a 37 51
a 37 52
a 37 53
a 37 54
a 37 55
a 37 56
a 37 57
a 37 58
a 37 59
a 37 60
a 37 61
a 37 62
a 37 63
a 37 64
a 37 65
a 37 66
a 37 67
a 37 68
a 37 69
a 38 3
a 38 21
a 38 22
a 38 23
a 38 24
a 38 25
a 38 4
a 38 26
a 38 27
a 38 28
a 38 29
a 38 30
a 38 31
a 38 32
a 38 33
a 38 34
a 38 35
a 38 36
a 38 37
a 38 39
a 38 40
a 38 41
a 38 42
a 38 43
a 38 44
a 38 45
a 38 46
a 38 47
a 38 48
a 38 49
a 38 50
a 38 51
a 38 52
a 38 53
a 38 54
a 38 55
a 38 56
a 38 57
a 38 58
a 38 59
a 38 60
a 38 61
a 38 62
a 38 63
a 38 64
a 38 65
a 38 66
a 38 67
a 38 68
a 38 69
a 39 3
a 39 21
a 39 22
a 39 23
a 39 24
a 39 25
a 39 4
a 39 26
a 39 27
a 39 28
a 39 29
a 39 30
a 39 31
a 39 32
a 39 33
a 39 34
a 39 35
a 39 36
a 39 37
a 39 38
a 39 40
a 39 41
a 39 42
a 39 43
a 39 44
a 39 45
a 39 46
a 39 47
a 39 48
a 39 49
a 39 50
a 39 51
a 39 52
a 39 53
a 39 54
a 39 55
a 39 56
a 39 57
a 39 58
a 39 59
a 39 60
a 39 61
a 39 62
a 39 63
a 39 64
a 39 65
a 39 66
a 39 67
a 39 68
a 39 69
a 39 113
a 40 3
a 40 21
a 40 22
a 40 23
a 40 24
a 40 25
a 40 4
a 40 26
a 40 27
a 40 28
a 40 29
a 40 30
a 40 31
a 40 32
a 40 33
a 40 34
a 40 35
a 40 36
a 40 37
a 40 38
a 40 39
a 40 41
a 40 42
a 40 43
a 40 44
a 40 45
a 40 46
a 40 47
a 40 48
a 40 49
a 40 50
a 40 51
a 40 52
a 40 53
a 40 54
a 40 55
a 40 56
a 40 57
a 40 58
a 40 59
a 40 60
a 40 61
a 40 62
a 40 63
a 40 64
a 40 65
a 40 66
a 40 67
a 40 68
a 40 69
a 40 114
a 41 3
a 41 21
a 41 22
a 41 23
a 41 24
a 41 25
a 41 4
a 41 26
a 41 27
a 41 28
a 41 29
a 41 30
a 41 31
a 41 32
a 41 33
a 41 34
a 41 35
a 41 36
a 41 37
a 41 38
a 41 39
a 41 40
a 41 42
a 41 43
a 41 44
a 41 45
a 41 46
a 41 47
a 41 48
a 41 49
a 41 50
a 41 51
a 41 52
a 41 53
a 41 54
a 41 55
a 41 56
a 41 57
a 41 58
a 41 59
a 41 60
a 41 61
a 41 62
a 41 63
a 41 64
a 41 65
a 41 66
a 41 67
a 41 68
a 41 69
a 42 3
a 42 21
a 42 22
a 42 23
a 42 24
a 42 25
a 42 4
a 42 26
a 42 27
a 42 28
a 42 29
a 42 30
a 42 31
a 42 32
a 42 33
a 42 34
a 42 35
a 42 36
a 42 37
a 42 38
a 42 39
a 42 40
a 42 41
a 42 43
a 42 44
a 42 45
a 42 46
a 42 47
a 42 48
a 42 49
a 42 50
a 42 51
a 42 52
a 42 53
a 42 54
a 42 55
a 42 56
a 42 57
a 42 58
a 42 59
a 42 60
a 42 61
a 42 62
a 42 63
a 42 64
a 42 65
a 42 66
a 42 67
a 42 68
a 42 69
a 43 3
a 43 21
a 43 22
a 43 23
a 43 24
a 43 25
a 43 4
a 43 26
a 43 27
a 43 28
a 43 29
a 43 30
a 43 31
a 43 32
a 43 33
a 43 34
a 43 35
a 43 36
a 43 37
a 43 38
a 43 39
a 43 40
a 43 41
a 43 42
a 43 44
a 43 45
a 43 46
a 43 47
a 43 48
a 43 49
a 43 50
a 43 51
a 43 52
a 43 53
a 43 54
a 43 55
a 43 56
a 43 57
a 43 58
a 43 59
a 43 60
a 43 61
a 43 62
a 43 63
a 43 64
a 43 65
a 43 66
a 43 67
a 43 68
a 43 69
a 43 115
a 43 116
a 44 3
a 44 21
a 44 22
a 44 23
a 44 24
a 44 25
a 44 4
a 44 26
a 44 27
a 44 28
a 44 29
a 44 30
a 44 31
a 44 32
a 44 33
a 44 34
a 44 35
a 44 36
a 44 37
a 44 38
a 44 39
a 44 40
a 44 41
a 44 42
a 44 43
a 44 45
a 44 46
a 44 47
a 44 48
a 44 49
a 44 50
a 44 51
a 44 52
a 44 53
a 44 54
a 44 55
a 44 56
a 44 57
a 44 58
a 44 59
a 44 60
a 44 61
a 44 62
a 44 63
a 44 64
a 44 65
a 44 66
a 44 67
a 44 68
a 44 69
a 44 109
a 44 110
a 44 111
a 44 112
a 45 3
a 45 21
a 45 22
a 45 23
a 45 24
a 45 25
a 45 4
a 45 26
a 45 27
a 45 28
a 45 29
a 45 30
a 45 31
a 45 32
a 45 33
a 45 34
a 45 35
a 45 36
a 45 37
a 45 38
a 45 39
a 45 40
a 45 41
a 45 42
a 45 43
a 45 44
a 45 46
a 45 47
a 45 48
a 45 49
a 45 50
a 45 51
a 45 52
a 45 53
a 45 54
a 45 55
a 45 56
a 45 57
a 45 58
a 45 59
a 45 60
a 45 61
a 45 62
a 45 63
a 45 64
a 45 65
a 45 66
a 45 67
a 45 68
a 45 69
a 45 117
a 46 3
a 46 21
a 46 22
a 46 23
a 46 24
a 46 25
a 46 4
a 46 26
a 46 27
a 46 28
a 46 29
a 46 30
a 46 31
a 46 32
a 46 33
a 46 34
a 46 35
a 46 36
a 46 37
a 46 38
a 46 39
a 46 40
a 46 41
a 46 42
a 46 43
a 46 44
a 46 45
a 46 47
a 46 48
a 46 49
a 46 50
a 46 51
a 46 52
a 46 53
a 46 54
a 46 55
a 46 56
a 46 57
a 46 58
a 46 59
a 46 60
a 46 61
a 46 62
a 46 63
a 46 64
a 46 65
a 46 66
a 46 67
a 46 68
a 46 69
a 47 3
a 47 21
a 47 22
a 47 23
a 47 24
a 47 25
a 47 4
a 47 26
a 47 27
a 47 28
a 47 29
a 47 30
a 47 31
a 47 32
a 47 33
a 47 34
a 47 35
a 47 36
a 47 37
a 47 38
a 47 39
a 47 40
a 47 41
a 47 42
a 47 43
a 47 44
a 47 45
a 47 46
a 47 48
a 47 49
a 47 50
a 47 51
a 47 52
a 47 53
a 47 54
a 47 55
a 47 56
a 47 57
a 47 58
a 47 59
a 47 60
a 47 61
a 47 62
a 47 63
a 47 64
a 47 65
a 47 66
a 47 67
a 47 68
a 47 69
a 48 3
a 48 21
a 48 22
a 48 23
a 48 24
a 48 25
a 48 4
a 48 26
a 48 27
a 48 28
a 48 29
a 48 30
a 48 31
a 48 32
a 48 33
a 48 34
a 48 35
a 48 36
a 48 37
a 48 38
a 48 39
a 48 40
a 48 41
a 48 42
a 48 43
a 48 44
a 48 45
a 48 46
a 48 47
a 48 49
a 48 50
a 48 51
a 48 52
a 48 53
a 48 54
a 48 55
a 48 56
a 48 57
a 48 58
a 48 59
a 48 60
a 48 61
a 48 62
a 48 63
a 48 64
a 48 65
a 48 66
a 48 67
a 48 68
a 48 69
a 49 3
a 49 21
a 49 22
a 49 23
a 49 24
a 49 25
a 49 4
a 49 26
a 49 27
a 49 28
a 49 29
a 49 30
a 49 31
a 49 32
a 49 33
a 49 34
a 49 35
a 49 36
a 49 37
a 49 38
a 49 39
a 49 40
a 49 41
a 49 42
a 49 43
a 49 44
a 49 45
a 49 46
a 49 47
a 49 48
a 49 50
a 49 51
a 49 52
a 49 53
a 49 54
a 49 55
a 49 56
a 49 57
a 49 58
a 49 59
a 49 60
a 49 61
a 49 62
a 49 63
a 49 64
a 49 65
a 49 66
a 49 67
a 49 68
a 49 69
a 50 3
a 50 21
a 50 22
a 50 23
a 50 24
a 50 25
a 50 4
a 50 26
a 50 27
a 50 28
a 50 29
a 50 30
a 50 31
a 50 32
a 50 33
a 50 34
a 50 35
a 50 36
a 50 37
a 50 38
a 50 39
a 50 40
a 50 41
a 50 42
a 50 43
a 50 44
a 50 45
a 50 46
a 50 47
a 50 48
a 50 49
a 50 51
a 50 52
a 50 53
a 50 54
a 50 55
a 50 56
a 50 57
a 50 58
a 50 59
a 50 60
a 50 61
a 50 62
a 50 63
a 50 64
a 50 65
a 50 66
a 50 67
a 50 68
a 50 69
a 50 118
a 51 3
a 51 21
a 51 22
a 51 23
a 51 24
a 51 25
a 51 4
a 51 26
a 51 27
a 51 28
a 51 29
a 51 30
a 51 31
a 51 32
a 51 33
a 51 34
a 51 35
a 51 36
a 51 37
a 51 38
a 51 39
a 51 40
a 51 41
a 51 42
a 51 43
a 51 44
a 51 45
a 51 46
a 51 47
a 51 48
a 51 49
a 51 50
a 51 52
a 51 53
a 51 54
a 51 55
a 51 56
a 51 57
a 51 58
a 51 59
a 51 60
a 51 61
a 51 62
a 51 63
a 51 64
a 51 65
a 51 66
a 51 67
a 51 68
a 51 69
a 51 119
a 51 120
a 51 121
a 51 122
a 51 123
a 51 124
a 52 3
a 52 21
a 52 22
a 52 23
a 52 24
a 52 25
a 52 4
a 52 26
a 52 27
a 52 28
a 52 29
a 52 30
a 52 31
a 52 32
a 52 33
a 52 34
a 52 35
a 52 36
a 52 37
a 52 38
a 52 39
a 52 40
a 52 41
a 52 42
a 52 43
a 52 44
a 52 45
a 52 46
a 52 47
a 52 48
a 52 49
a 52 50
a 52 51
a 52 53
a 52 54
a 52 55
a 52 56
a 52 57
a 52 58
a 52 59
a 52 60
a 52 61
a 52 62
a 52 63
a 52 64
a 52 65
a 52 66
a 52 67
a 52 68
a 52 69
a 52 125
a 53 3
a 53 21
a 53 22
a 53 23
a 53 24
a 53 25
a 53 4
a 53 26
a 53 27
a 53 28
a 53 29
a 53 30
a 53 31
a 53 32
a 53 33
a 53 34
a 53 35
a 53 36
a 53 37
a 53 38
a 53 39
a 53 40
a 53 41
a 53 42
a 53 43
a 53 44
a 53 45
a 53 46
a 53 47
a 53 48
a 53 49
a 53 50
a 53 51
a 53 52
a 53 54
a 53 55
a 53 56
a 53 57
a 53 58
a 53 59
a 53 60
a 53 61
a 53 62
a 53 63
a 53 64
a 53 65
a 53 66
a 53 67
a 53 68
a 53 69
a 53 119
a 53 120
a 53 121
a 53 122
a 53 123
a 53 124
a 54 3
a 54 21
a 54 22
a 54 23
a 54 24
a 54 25
a 54 4
a 54 26
a 54 27
a 54 28
a 54 29
a 54 30
a 54 31
a 54 32
a 54 33
a 54 34
a 54 35
a 54 36
a 54 37
a 54 38
a 54 39
a 54 40
a 54 41
a 54 42
a 54 43
a 54 44
a 54 45
a 54 46
a 54 47
a 54 48
a 54 49
a 54 50
a 54 51
a 54 52
a 54 53
a 54 55
a 54 56
a 54 57
a 54 58
a 54 59
a 54 60
a 54 61
a 54 62
a 54 63
a 54 64
a 54 65
a 54 66
a 54 67
a 54 68
a 54 69
a 55 3
a 55 21
a 55 22
a 55 23
a 55 24
a 55 25
a 55 4
a 55 26
a 55 27
a 55 28
a 55 29
a 55 30
a 55 31
a 55 32
a 55 33
a 55 34
a 55 35
a 55 36
a 55 37
a 55 38
a 55 39
a 55 40
a 55 41
a 55 42
a 55 43
a 55 44
a 55 45
a 55 46
a 55 47
a 55 48
a 55 49
a 55 50
a 55 51
a 55 52
a 55 53
a 55 54
a 55 56
a 55 57
a 55 58
a 55 59
a 55 60
a 55 61
a 55 62
a 55 63
a 55 64
a 55 65
a 55 66
a 55 67
a 55 68
a 55 69
a 56 3
a 56 21
a 56 22
a 56 23
a 56 24
a 56 25
a 56 4
a 56 26
a 56 27
a 56 28
a 56 29
a 56 30
a 56 31
a 56 32
a 56 33
a 56 34
a 56 35
a 56 36
a 56 37
a 56 38
a 56 39
a 56 40
a 56 41
a 56 42
a 56 43
a 56 44
a 56 45
a 56 46
a 56 47
a 56 48
a 56 49
a 56 50
a 56 51
a 56 52
a 56 53
a 56 54
a 56 55
a 56 57
a 56 58
a 56 59
a 56 60
a 56 61
a 56 62
a 56 63
a 56 64
a 56 65
a 56 66
a 56 67
a 56 68
a 56 69
a 56 126
a 57 3
a 57 21
a 57 22
a 57 23
a 57 24
a 57 25
a 57 4
a 57 26
a 57 27
a 57 28
a 57 29
a 57 30
a 57 31
a 57 32
a 57 33
a 57 34
a 57 35
a 57 36
a 57 37
a 57 38
a 57 39
a 57 40
a 57 41
a 57 42
a 57 43
a 57 44
a 57 45
a 57 46
a 57 47
a 57 48
a 57 49
a 57 50
a 57 51
a 57 52
a 57 53
a 57 54
a 57 55
a 57 56
a 57 58
a 57 59
a 57 60
a 57 61
a 57 62
a 57 63
a 57 64
a 57 65
a 57 66
a 57 67
a 57 68
a 57 69
a 57 119
a 57 120
a 57 121
a 57 122
a 57 123
a 57 124
a 58 3
a 58 21
a 58 22
a 58 23
a 58 24
a 58 25
a 58 4
a 58 26
a 58 27
a 58 28
a 58 29
a 58 30
a 58 31
a 58 32
a 58 33
a 58 34
a 58 35
a 58 36
a 58 37
a 58 38
a 58 39
a 58 40
a 58 41
a 58 42
a 58 43
a 58 44
a 58 45
a 58 46
a 58 47
a 58 48
a 58 49
a 58 50
a 58 51
a 58 52
a 58 53
a 58 54
a 58 55
a 58 56
a 58 57
a 58 59
a 58 60
a 58 61
a 58 62
a 58 63
a 58 64
a 58 65
a 58 66
a 58 67
a 58 68
a 58 69
a 58 127
a 59 3
a 59 21
a 59 22
a 59 23
a 59 24
a 59 25
a 59 4
a 59 26
a 59 27
a 59 28
a 59 29
a 59 30
a 59 31
a 59 32
a 59 33
a 59 34
a 59 35
a 59 36
a 59 37
a 59 38
a 59 39
a 59 40
a 59 41
a 59 42
a 59 43
a 59 44
a 59 45
a 59 46
a 59 47
a 59 48
a 59 49
a 59 50
a 59 51
a 59 52
a 59 53
a 59 54
a 59 55
a 59 56
a 59 57
a 59 58
a 59 60
a 59 61
a 59 62
a 59 63
a 59 64
a 59 65
a 59 66
a 59 67
a 59 68
a 59 69
a 59 119
a 59 120
a 59 121
a 59 122
a 59 123
a 59 124
a 60 3
a 60 21
a 60 22
a 60 23
a 60 24
a 60 25
a 60 4
a 60 26
a 60 27
a 60 28
a 60 29
a 60 30
a 60 31
a 60 32
a 60 33
a 60 34
a 60 35
a 60 36
a 60 37
a 60 38
a 60 39
a 60 40
a 60 41
a 60 42
a 60 43
a 60 44
a 60 45
a 60 46
a 60 47
a 60 48
a 60 49
a 60 50
a 60 51
a 60 52
a 60 53
a 60 54
a 60 55
a 60 56
a 60 57
a 60 58
a 60 59
a 60 61
a 60 62
a 60 63
a 60 64
a 60 65
a 60 66
a 60 67
a 60 68
a 60 69
a 61 3
a 61 21
a 61 22
a 61 23
a 61 24
a 61 25
a 61 4
a 61 26
a 61 27
a 61 28
a 61 29
a 61 30
a 61 31
a 61 32
a 61 33
a 61 34
a 61 35
a 61 36
a 61 37
a 61 38
a 61 39
a 61 40
a 61 41
a 61 42
a 61 43
a 61 44
a 61 45
a 61 46
a 61 47
a 61 48
a 61 49
a 61 50
a 61 51
a 61 52
a 61 53
a 61 54
a 61 55
a 61 56
a 61 57
a 61 58
a 61 59
a 61 60
a 61 62
a 61 63
a 61 64
a 61 65
a 61 66
a 61 67
a 61 68
a 61 69
a 62 3
a 62 21
a 62 22
a 62 23
a 62 24
a 62 25
a 62 4
a 62 26
a 62 27
a 62 28
a 62 29
a 62 30
a 62 31
a 62 32
a 62 33
a 62 34
a 62 35
a 62 36
a 62 37
a 62 38
a 62 39
a 62 40
a 62 41
a 62 42
a 62 43
a 62 44
a 62 45
a 62 46
a 62 47
a 62 48
a 62 49
a 62 50
a 62 51
a 62 52
a 62 53
a 62 54
a 62 55
a 62 56
a 62 57
a 62 58
a 62 59
a 62 60
a 62 61
a 62 63
a 62 64
a 62 65
a 62 66
a 62 67
a 62 68
a 62 69
a 62 128
a 63 3
a 63 21
a 63 22
a 63 23
a 63 24
a 63 25
a 63 4
a 63 26
a 63 27
a 63 28
a 63 29
a 63 30
a 63 31
a 63 32
a 63 33
a 63 34
a 63 35
a 63 36
a 63 37
a 63 38
a 63 39
a 63 40
a 63 41
a 63 42
a 63 43
a 63 44
a 63 45
a 63 46
a 63 47
a 63 48
a 63 49
a 63 50
a 63 51
a 63 52
a 63 53
a 63 54
a 63 55
a 63 56
a 63 57
a 63 58
a 63 59
a 63 60
a 63 61
a 63 62
a 63 64
a 63 65
a 63 66
a 63 67
a 63 68
a 63 69
a 63 119
a 63 120
a 63 121
a 63 122
a 63 123
a 63 124
a 64 3
a 64 21
a 64 22
a 64 23
a 64 24
a 64 25
a 64 4
a 64 26
a 64 27
a 64 28
a 64 29
a 64 30
a 64 31
a 64 32
a 64 33
a 64 34
a 64 35
a 64 36
a 64 37
a 64 38
a 64 39
a 64 40
a 64 41
a 64 42
a 64 43
a 64 44
a 64 45
a 64 46
a 64 47
a 64 48
a 64 49
a 64 50
a 64 51
a 64 52
a 64 53
a 64 54
a 64 55
a 64 56
a 64 57
a 64 58
a 64 59
a 64 60
a 64 61
a 64 62
a 64 63
a 64 65
a 64 66
a 64 67
a 64 68
a 64 69
a 64 129
a 65 3
a 65 21
a 65 22
a 65 23
a 65 24
a 65 25
a 65 4
a 65 26
a 65 27
a 65 28
a 65 29
a 65 30
a 65 31
a 65 32
a 65 33
a 65 34
a 65 35
a 65 36
a 65 37
a 65 38
a 65 39
a 65 40
a 65 41
a 65 42
a 65 43
a 65 44
a 65 45
a 65 46
a 65 47
a 65 48
a 65 49
a 65 50
a 65 51
a 65 52
a 65 53
a 65 54
a 65 55
a 65 56
a 65 57
a 65 58
a 65 59
a 65 60
a 65 61
a 65 62
a 65 63
a 65 64
a 65 66
a 65 67
a 65 68
a 65 69
a 65 119
a 65 120
a 65 121
a 65 122
a 65 123
a 65 124
a 66 3
a 66 21
a 66 22
a 66 23
a 66 24
a 66 25
a 66 4
a 66 26
a 66 27
a 66 28
a 66 29
a 66 30
a 66 31
a 66 32
a 66 33
a 66 34
a 66 35
a 66 36
a 66 37
a 66 38
a 66 39
a 66 40
a 66 41
a 66 42
a 66 43
a 66 44
a 66 45
a 66 46
a 66 47
a 66 48
a 66 49
a 66 50
a 66 51
a 66 52
a 66 53
a 66 54
a 66 55
a 66 56
a 66 57
a 66 58
a 66 59
a 66 60
a 66 61
a 66 62
a 66 63
a 66 64
a 66 65
a 66 67
a 66 68
a 66 69
a 67 3
a 67 21
a 67 22
a 67 23
a 67 24
a 67 25
a 67 4
a 67 26
a 67 27
a 67 28
a 67 29
a 67 30
a 67 31
a 67 32
a 67 33
a 67 34
a 67 35
a 67 36
a 67 37
a 67 38
a 67 39
a 67 40
a 67 41
a 67 42
a 67 43
a 67 44
a 67 45
a 67 46
a 67 47
a 67 48
a 67 49
a 67 50
a 67 51
a 67 52
a 67 53
a 67 54
a 67 55
a 67 56
a 67 57
a 67 58
a 67 59
a 67 60
a 67 61
a 67 62
a 67 63
a 67 64
a 67 65
a 67 66
a 67 68
a 67 69
a 68 3
a 68 21
a 68 22
a 68 23
a 68 24
a 68 25
a 68 4
a 68 26
a 68 27
a 68 28
a 68 29
a 68 30
a 68 31
a 68 32
a 68 33
a 68 34
a 68 35
a 68 36
a 68 37
a 68 38
a 68 39
a 68 40
a 68 41
a 68 42
a 68 43
a 68 44
a 68 45
a 68 46
a 68 47
a 68 48
a 68 49
a 68 50
a 68 51
a 68 52
a 68 53
a 68 54
a 68 55
a 68 56
a 68 57
a 68 58
a 68 59
a 68 60
a 68 61
a 68 62
a 68 63
a 68 64
a 68 65
a 68 66
a 68 67
a 68 69
a 69 3
a 69 21
a 69 22
a 69 23
a 69 24
a 69 25
a 69 4
a 69 26
a 69 27
a 69 28
a 69 29
a 69 30
a 69 31
a 69 32
a 69 33
a 69 34
a 69 35
a 69 36
a 69 37
a 69 38
a 69 39
a 69 40
a 69 41
a 69 42
a 69 43
a 69 44
a 69 45
a 69 46
a 69 47
a 69 48
a 69 49
a 69 50
a 69 51
a 69 52
a 69 53
a 69 54
a 69 55
a 69 56
a 69 57
a 69 58
a 69 59
a 69 60
a 69 61
a 69 62
a 69 63
a 69 64
a 69 65
a 69 66
a 69 67
a 69 68
a 92 21
a 92 23
a 92 26
a 92 28
a 92 93
a 92 94
a 92 95
a 92 96
a 92 97
a 92 98
a 92 99
a 92 130
a 92 131
a 93 21
a 93 23
a 93 26
a 93 28
a 93 92
a 93 94
a 93 95
a 93 96
a 93 97
a 93 98
a 93 99
a 93 130
a 93 131
a 94 21
a 94 23
a 94 26
a 94 28
a 94 92
a 94 93
a 94 95
a 94 96
a 94 97
a 94 98
a 94 99
a 95 21
a 95 23
a 95 26
a 95 28
a 95 92
a 95 93
a 95 94
a 95 96
a 95 97
a 95 98
a 95 99
a 96 21
a 96 23
a 96 26
a 96 28
a 96 92
a 96 93
a 96 94
a 96 95
a 96 97
a 96 98
a 96 99
a 97 21
a 97 23
a 97 26
a 97 28
a 97 92
a 97 93
a 97 94
a 97 95
a 97 96
a 97 98
a 97 99
a 98 21
a 98 23
a 98 26
a 98 28
a 98 92
a 98 93
a 98 94
a 98 95
a 98 96
a 98 97
a 98 99
a 99 21
a 99 23
a 99 26
a 99 28
a 99 92
a 99 93
a 99 94
a 99 95
a 99 96
a 99 97
a 99 98
a 100 33
a 100 132
a 101 33
a 101 35
a 101 102
a 101 133
a 101 134
a 101 135
a 101 136
a 102 33
a 102 101
a 103 33
a 103 135
a 104 33
a 104 105
a 105 33
a 105 104
a 105 137
a 105 138
a 105 139
a 105 140
a 105 141
a 105 142
a 105 143
a 106 33
a 107 33
a 107 133
a 108 33
a 108 136
a 109 34
a 109 36
a 109 44
a 109 110
a 109 111
a 109 112
a 109 144
a 109 145
a 109 146
a 109 147
a 109 148
a 109 149
a 109 150
a 109 151
a 110 34
a 110 36
a 110 44
a 110 109
a 110 111
a 110 112
a 110 144
a 110 145
a 110 146
a 111 34
a 111 36
a 111 44
a 111 109
a 111 110
a 111 112
a 112 34
a 112 36
a 112 44
a 112 109
a 112 110
a 112 111
a 113 39
a 113 152
a 113 114
a 113 153
a 113 154
a 113 155
a 113 156
a 113 157
a 113 158
a 114 40
a 114 113
a 114 153
a 114 159
a 114 160
a 114 161
a 114 162
a 115 43
a 115 163
a 115 117
a 115 164
a 115 165
a 115 166
a 115 167
a 115 168
a 115 169
a 116 43
a 116 117
a 117 45
a 117 115
a 117 164
a 117 116
a 117 170
a 117 171
a 117 172
a 118 50
a 118 173
a 118 125
a 118 174
a 118 175
a 118 176
a 118 177
a 118 178
a 118 179
a 119 51
a 119 53
a 119 57
a 119 59
a 119 63
a 119 65
a 119 180
a 119 120
a 119 181
a 119 121
a 119 182
a 119 122
a 119 183
a 119 123
a 119 184
a 119 124
a 119 185
a 119 186
a 120 51
a 120 53
a 120 57
a 120 59
a 120 63
a 120 65
a 120 119
a 120 180
a 120 181
a 120 121
a 120 182
a 120 122
a 120 183
a 120 123
a 120 184
a 120 124
a 120 185
a 120 187
a 121 51
a 121 53
a 121 57
a 121 59
a 121 63
a 121 65
a 121 119
a 121 180
a 121 120
a 121 181
a 121 182
a 121 122
a 121 183
a 121 123
a 121 184
a 121 124
a 121 185
a 121 188
a 122 51
a 122 53
a 122 57
a 122 59
a 122 63
a 122 65
a 122 119
a 122 180
a 122 120
a 122 181
a 122 121
a 122 182
a 122 183
a 122 123
a 122 184
a 122 124
a 122 185
a 122 189
a 123 51
a 123 53
a 123 57
a 123 59
a 123 63
a 123 65
a 123 119
a 123 180
a 123 120
a 123 181
a 123 121
a 123 182
a 123 122
a 123 183
a 123 184
a 123 124
a 123 185
a 123 190
a 124 51
a 124 53
a 124 57
a 124 59
a 124 63
a 124 65
a 124 119
a 124 180
a 124 120
a 124 181
a 124 121
a 124 182
a 124 122
a 124 183
a 124 123
a 124 184
a 124 185
a 124 191
a 125 52
a 125 118
a 125 174
a 125 192
a 125 193
a 125 194
a 125 195
a 126 56
a 126 196
a 126 127
a 126 197
a 126 198
a 126 199
a 126 200
a 126 201
a 126 202
a 127 58
a 127 126
a 127 197
a 127 203
a 127 204
a 127 205
a 127 206
a 128 62
a 128 207
a 128 129
a 128 208
a 128 209
a 128 210
a 128 211
a 128 212
a 128 213
a 129 64
a 129 128
a 129 208
a 129 214
a 129 215
a 129 216
a 129 217
a 218 219
a 218 220
a 219 218
a 220 218
a 220 221
a 220 222
a 220 223
a 220 224
a 220 225
a 221 220
a 221 226
a 222 220
a 222 227
a 223 220
a 223 224
a 224 220
a 224 223
a 224 225
a 225 220
a 225 224
a 225 228
a 226 221
a 227 222
a 228 225
a 228 229
a 229 228
a 229 230
a 229 231
a 229 232
a 229 233
a 229 234
a 229 235
a 229 236
a 229 237
a 229 238
a 229 239
a 229 240
a 229 241
a 229 242
a 229 243
a 229 244
a 229 245
a 229 246
a 229 247
a 229 248
a 230 229
a 230 249
a 230 231
a 230 232
a 230 233
a 230 234
a 230 235
a 230 236
a 230 237
a 230 238
a 230 239
a 230 240
a 230 241
a 230 242
a 230 243
a 230 244
a 230 245
a 230 246
a 230 247
a 230 248
a 231 229
a 231 230
a 231 250
a 231 232
a 231 233
a 231 234
a 231 235
a 231 236
a 231 237
a 231 238
a 231 239
a 231 240
a 231 241
a 231 242
a 231 243
a 231 244
a 231 245
a 231 246
a 231 247
a 231 248
a 232 229
a 232 230
a 232 231
a 232 251
a 232 233
a 232 234
a 232 235
a 232 236
a 232 237
a 232 238
a 232 239
a 232 240
a 232 241
a 232 242
a 232 243
a 232 244
a 232 245
a 232 246
a 232 247
a 232 248
a 233 229
a 233 230
a 233 231
a 233 232
a 233 252
a 233 234
a 233 235
a 233 236
a 233 237
a 233 238
a 233 239
a 233 240
a 233 241
a 233 242
a 233 243
a 233 244
a 233 245
a 233 246
a 233 247
a 233 248
a 234 229
a 234 230
a 234 231
a 234 232
a 234 233
a 234 253
a 234 235
a 234 236
a 234 237
a 234 238
a 234 239
a 234 240
a 234 241
a 234 242
a 234 243
a 234 244
a 234 245
a 234 246
a 234 247
a 234 248
a 235 229
a 235 230
a 235 231
a 235 232
a 235 233
a 235 234
a 235 254
a 235 236
a 235 237
a 235 238
a 235 239
a 235 240
a 235 241
a 235 242
a 235 243
a 235 244
a 235 245
a 235 246
a 235 247
a 235 248
a 236 229
a 236 230
a 236 231
a 236 232
a 236 233
a 236 234
a 236 235
a 236 255
a 236 237
a 236 238
a 236 239
a 236 240
a 236 241
a 236 242
a 236 243
a 236 244
a 236 245
a 236 246
a 236 247
a 236 248
a 237 229
a 237 230
a 237 231
a 237 232
a 237 233
a 237 234
a 237 235
a 237 236
a 237 256
a 237 257
a 237 238
a 237 239
a 237 240
a 237 241
a 237 242
a 237 243
a 237 244
a 237 245
a 237 246
a 237 247
a 237 248
a 237 258
a 237 259
a 237 260
a 237 261
a 237 262
a 237 263
a 237 264
a 237 265
a 237 266
a 237 267
a 237 268
a 237 269
a 237 270
a 237 271
a 237 272
a 237 273
a 237 274
a 237 275
a 237 276
a 237 277
a 237 278
a 237 279
a 237 280
a 237 281
a 237 282
a 237 283
a 237 284
a 237 285
a 237 286
a 237 287
a 237 288
a 237 289
a 237 290
a 237 291
a 237 292
a 237 293
a 237 294
a 237 295
a 237 296
a 237 297
a 237 298
a 237 299
a 237 300
a 237 301
a 237 302
a 237 303
a 237 304
a 237 305
a 237 306
a 237 307
a 237 308
a 237 309
a 237 310
a 237 311
a 237 312
a 238 229
a 238 230
a 238 231
a 238 232
a 238 233
a 238 234
a 238 235
a 238 236
a 238 237
a 238 239
a 238 240
a 238 241
a 238 242
a 238 243
a 238 244
a 238 245
a 238 246
a 238 247
a 238 248
a 239 229
a 239 230
a 239 231
a 239 232
a 239 233
a 239 234
a 239 235
a 239 236
a 239 237
a 239 238
a 239 240
a 239 241
a 239 242
a 239 243
a 239 244
a 239 245
a 239 246
a 239 247
a 239 248
a 240 229
a 240 230
a 240 231
a 240 232
a 240 233
a 240 234
a 240 235
a 240 236
a 240 237
a 240 238
a 240 239
a 240 241
a 240 242
a 240 243
a 240 244
a 240 245
a 240 246
a 240 247
a 240 248
a 241 229
a 241 230
a 241 231
a 241 232
a 241 233
a 241 234
a 241 235
a 241 236
a 241 237
a 241 238
a 241 239
a 241 240
a 241 242
a 241 243
a 241 244
a 241 245
a 241 246
a 241 247
a 241 248
a 242 229
a 242 230
a 242 231
a 242 232
a 242 233
a 242 234
a 242 235
a 242 236
a 242 237
a 242 238
a 242 239
a 242 240
a 242 241
a 242 243
a 242 244
a 242 245
a 242 246
a 242 247
a 242 248
a 243 229
a 243 230
a 243 231
a 243 232
a 243 233
a 243 234
a 243 235
a 243 236
a 243 237
a 243 238
a 243 239
a 243 240
a 243 241
a 243 242
a 243 244
a 243 245
a 243 246
a 243 247
a 243 248
a 244 229
a 244 230
a 244 231
a 244 232
a 244 233
a 244 234
a 244 235
a 244 236
a 244 237
a 244 238
a 244 239
a 244 240
a 244 241
a 244 242
a 244 243
a 244 245
a 244 246
a 244 247
a 244 248
a 245 229
a 245 230
a 245 231
a 245 232
a 245 233
a 245 234
a 245 235
a 245 236
a 245 237
a 245 238
a 245 239
a 245 240
a 245 241
a 245 242
a 245 243
a 245 244
a 245 246
a 245 247
a 245 248
a 246 229
a 246 230
a 246 231
a 246 232
a 246 233
a 246 234
a 246 235
a 246 236
a 246 237
a 246 238
a 246 239
a 246 240
a 246 241
a 246 242
a 246 243
a 246 244
a 246 245
a 246 247
a 246 248
a 247 229
a 247 230
a 247 231
a 247 232
a 247 233
a 247 234
a 247 235
a 247 236
a 247 237
a 247 238
a 247 239
a 247 240
a 247 241
a 247 242
a 247 243
a 247 244
a 247 245
a 247 246
a 247 248
a 248 229
a 248 230
a 248 231
a 248 232
a 248 233
a 248 234
a 248 235
a 248 236
a 248 237
a 248 238
a 248 239
a 248 240
a 248 241
a 248 242
a 248 243
a 248 244
a 248 245
a 248 246
a 248 247
a 313 314
a 313 315
a 314 313
a 315 313
a 315 316
a 315 317
a 315 318
a 315 319
a 315 320
a 316 315
a 316 321
a 317 315
a 317 322
a 318 315
a 318 319
a 319 315
a 319 318
a 319 320
a 320 315
a 320 319
a 320 323
a 321 316
a 322 317
a 323 320
a 323 324
a 324 323
a 324 325
a 324 258
a 324 326
a 324 259
a 324 327
a 324 328
a 325 324
a 325 329
a 258 324
a 258 256
a 258 257
a 258 237
a 258 326
a 258 259
a 258 327
a 258 328
a 258 260
a 258 261
a 258 262
a 258 263
a 258 264
a 258 265
a 258 266
a 258 267
a 258 268
a 258 269
a 258 270
a 258 271
a 258 272
a 258 273
a 258 274
a 258 275
a 258 276
a 258 277
a 258 278
a 258 279
a 258 280
a 258 281
a 258 282
a 258 283
a 258 284
a 258 285
a 258 286
a 258 287
a 258 288
a 258 289
a 258 290
a 258 291
a 258 292
a 258 293
a 258 294
a 258 295
a 258 296
a 258 297
a 258 298
a 258 299
a 258 300
a 258 301
a 258 302
a 258 303
a 258 304
a 258 305
a 258 306
a 258 307
a 258 308
a 258 309
a 258 310
a 258 311
a 258 312
a 326 324
a 326 258
a 326 259
a 326 327
a 326 328
a 259 324
a 259 256
a 259 257
a 259 237
a 259 258
a 259 326
a 259 327
a 259 328
a 259 260
a 259 261
a 259 262
a 259 263
a 259 264
a 259 265
a 259 266
a 259 267
a 259 268
a 259 269
a 259 270
a 259 271
a 259 272
a 259 273
a 259 274
a 259 275
a 259 276
a 259 277
a 259 278
a 259 279
a 259 280
a 259 281
a 259 282
a 259 283
a 259 284
a 259 285
a 259 286
a 259 287
a 259 288
a 259 289
a 259 290
a 259 291
a 259 292
a 259 293
a 259 294
a 259 295
a 259 296
a 259 297
a 259 298
a 259 299
a 259 300
a 259 301
a 259 302
a 259 303
a 259 304
a 259 305
a 259 306
a 259 307
a 259 308
a 259 309
a 259 310
a 259 311
a 259 312
a 327 324
a 327 258
a 327 326
a 327 259
a 327 328
a 328 324
a 328 258
a 328 326
a 328 259
a 328 327
a 330 331
a 330 332
a 331 330
a 332 330
a 332 333
a 332 334
a 332 335
a 332 336
a 332 337
a 333 332
a 333 338
a 334 332
a 334 339
a 335 332
a 335 336
a 336 332
a 336 335
a 336 337
a 337 332
a 337 336
a 337 340
a 338 333
a 339 334
a 340 337
a 340 341
a 341 340
a 341 342
a 341 260
a 341 343
a 341 261
a 341 344
a 341 345
a 342 341
a 342 346
a 260 341
a 260 256
a 260 257
a 260 237
a 260 258
a 260 259
a 260 343
a 260 261
a 260 344
a 260 345
a 260 262
a 260 263
a 260 264
a 260 265
a 260 266
a 260 267
a 260 268
a 260 269
a 260 270
a 260 271
a 260 272
a 260 273
a 260 274
a 260 275
a 260 276
a 260 277
a 260 278
a 260 279
a 260 280
a 260 281
a 260 282
a 260 283
a 260 284
a 260 285
a 260 286
a 260 287
a 260 288
a 260 289
a 260 290
a 260 291
a 260 292
a 260 293
a 260 294
a 260 295
a 260 296
a 260 297
a 260 298
a 260 299
a 260 300
a 260 301
a 260 302
a 260 303
a 260 304
a 260 305
a 260 306
a 260 307
a 260 308
a 260 309
a 260 310
a 260 311
a 260 312
a 343 341
a 343 260
a 343 261
a 343 344
a 343 345
a 261 341
a 261 256
a 261 257
a 261 237
a 261 258
a 261 259
a 261 260
a 261 343
a 261 344
a 261 345
a 261 262
a 261 263
a 261 264
a 261 265
a 261 266
a 261 267
a 261 268
a 261 269
a 261 270
a 261 271
a 261 272
a 261 273
a 261 274
a 261 275
a 261 276
a 261 277
a 261 278
a 261 279
a 261 280
a 261 281
a 261 282
a 261 283
a 261 284
a 261 285
a 261 286
a 261 287
a 261 288
a 261 289
a 261 290
a 261 291
a 261 292
a 261 293
a 261 294
a 261 295
a 261 296
a 261 297
a 261 298
a 261 299
a 261 300
a 261 301
a 261 302
a 261 303
a 261 304
a 261 305
a 261 306
a 261 307
a 261 308
a 261 309
a 261 310
a 261 311
a 261 312
a 344 341
a 344 260
a 344 343
a 344 261
a 344 345
a 345 341
a 345 260
a 345 343
a 345 261
a 345 344
a 347 348
a 347 349
a 348 347
a 349 347
a 349 350
a 349 351
a 349 352
a 349 353
a 349 329
a 350 349
a 350 354
a 351 349
a 351 355
a 352 349
a 352 353
a 353 349
a 353 352
a 353 329
a 329 349
a 329 353
a 329 325
a 354 350
a 355 351
a 356 357
a 356 358
a 357 356
a 358 356
a 358 359
a 358 360
a 358 361
a 358 362
a 358 346
a 359 358
a 359 363
a 360 358
a 360 364
a 361 358
a 361 362
a 362 358
a 362 361
a 362 346
a 346 358
a 346 362
a 346 342
a 363 359
a 364 360
a 365 366
a 365 367
a 366 365
a 367 365
a 367 368
a 367 369
a 367 370
a 367 371
a 367 372
a 368 367
a 368 373
a 369 367
a 369 374
a 370 367
a 370 371
a 371 367
a 371 370
a 371 372
a 372 367
a 372 371
a 372 249
a 373 368
a 374 369
a 249 372
a 249 230
a 375 376
a 375 377
a 376 375
a 377 375
a 377 378
a 377 379
a 377 380
a 377 381
a 377 382
a 378 377
a 378 383
a 379 377
a 379 384
a 380 377
a 380 381
a 381 377
a 381 380
a 381 382
a 382 377
a 382 381
a 382 250
a 383 378
a 384 379
a 250 382
a 250 231
a 385 386
a 385 387
a 386 385
a 387 385
a 387 388
a 387 389
a 387 390
a 387 391
a 387 392
a 388 387
a 388 393
a 389 387
a 389 394
a 390 387
a 390 391
a 391 387
a 391 390
a 391 392
a 392 387
a 392 391
a 392 251
a 393 388
a 394 389
a 251 392
a 251 232
a 395 396
a 395 397
a 396 395
a 397 395
a 397 398
a 397 399
a 397 400
a 397 401
a 397 402
a 398 397
a 398 403
a 399 397
a 399 404
a 400 397
a 400 401
a 401 397
a 401 400
a 401 402
a 402 397
a 402 401
a 402 252
a 403 398
a 404 399
a 252 402
a 252 233
a 405 406
a 405 407
a 406 405
a 407 405
a 407 408
a 407 409
a 407 410
a 407 411
a 407 412
a 408 407
a 408 413
a 409 407
a 409 414
a 410 407
a 410 411
a 411 407
a 411 410
a 411 412
a 412 407
a 412 411
a 412 253
a 413 408
a 414 409
a 253 412
a 253 234
a 415 416
a 415 417
a 416 415
a 417 415
a 417 418
a 417 419
a 417 420
a 417 421
a 417 422
a 418 417
a 418 423
a 419 417
a 419 424
a 420 417
a 420 421
a 421 417
a 421 420
a 421 422
a 422 417
a 422 421
a 422 254
a 423 418
a 424 419
a 254 422
a 254 235
a 425 426
a 425 427
a 426 425
a 427 425
a 427 428
a 427 429
a 427 430
a 427 431
a 427 432
a 428 427
a 428 433
a 429 427
a 429 434
a 430 427
a 430 431
a 431 427
a 431 430
a 431 432
a 432 427
a 432 431
a 432 255
a 433 428
a 434 429
a 255 432
a 255 236
a 70 5
a 71 6
a 71 435
a 72 6
a 72 8
a 72 83
a 72 436
a 72 437
a 72 216
a 72 438
a 72 439
a 72 440
a 72 441
a 72 442
a 72 443
a 72 444
a 72 445
a 72 446
a 73 6
a 73 12
a 74 10
a 74 77
a 74 447
a 74 448
a 74 449
a 74 450
a 74 451
a 75 10
a 75 452
a 76 10
a 77 10
a 77 74
a 78 10
a 78 447
a 79 10
a 79 448
a 80 10
a 80 451
a 447 74
a 447 78
a 448 74
a 448 79
a 449 74
a 450 74
a 450 453
a 451 74
a 451 80
a 435 71
a 83 72
a 83 14
a 83 16
a 83 436
a 83 437
a 83 216
a 83 438
a 83 439
a 83 440
a 83 441
a 83 442
a 83 443
a 83 444
a 83 445
a 83 446
a 436 72
a 436 83
a 436 454
a 436 455
a 436 437
a 436 216
a 436 438
a 436 439
a 436 440
a 436 441
a 436 442
a 436 443
a 436 444
a 436 445
a 436 446
a 437 72
a 437 83
a 437 436
a 437 456
a 437 457
a 437 216
a 437 438
a 437 439
a 437 440
a 437 441
a 437 442
a 437 443
a 437 444
a 437 445
a 437 446
a 216 72
a 216 83
a 216 436
a 216 437
a 216 129
a 216 209
a 216 438
a 216 439
a 216 440
a 216 441
a 216 442
a 216 443
a 216 444
a 216 445
a 216 446
a 438 72
a 438 83
a 438 436
a 438 437
a 438 216
a 438 439
a 438 440
a 438 441
a 438 442
a 438 443
a 438 444
a 438 445
a 438 446
a 439 72
a 439 83
a 439 436
a 439 437
a 439 216
a 439 438
a 439 440
a 439 441
a 439 442
a 439 443
a 439 444
a 439 445
a 439 446
a 440 72
a 440 83
a 440 436
a 440 437
a 440 216
a 440 438
a 440 439
a 440 441
a 440 442
a 440 443
a 440 444
a 440 445
a 440 446
a 441 72
a 441 83
a 441 436
a 441 437
a 441 216
a 441 438
a 441 439
a 441 440
a 441 442
a 441 443
a 441 444
a 441 445
a 441 446
a 442 72
a 442 83
a 442 436
a 442 437
a 442 216
a 442 438
a 442 439
a 442 440
a 442 441
a 442 443
a 442 444
a 442 445
a 442 446
a 443 72
a 443 83
a 443 436
a 443 437
a 443 216
a 443 438
a 443 439
a 443 440
a 443 441
a 443 442
a 443 444
a 443 445
a 443 446
a 444 72
a 444 83
a 444 436
a 444 437
a 444 216
a 444 438
a 444 439
a 444 440
a 444 441
a 444 442
a 444 443
a 444 445
a 444 446
a 445 72
a 445 83
a 445 436
a 445 437
a 445 216
a 445 438
a 445 439
a 445 440
a 445 441
a 445 442
a 445 443
a 445 444
a 445 446
a 446 72
a 446 83
a 446 436
a 446 437
a 446 216
a 446 438
a 446 439
a 446 440
a 446 441
a 446 442
a 446 443
a 446 444
a 446 445
a 452 75
a 453 450
a 81 13
a 82 14
a 82 458
a 84 14
a 84 20
a 85 18
a 85 88
a 85 459
a 85 460
a 85 461
a 85 462
a 85 463
a 86 18
a 86 464
a 87 18
a 88 18
a 88 85
a 89 18
a 89 459
a 90 18
a 90 460
a 91 18
a 91 463
a 459 85
a 459 89
a 460 85
a 460 90
a 461 85
a 462 85
a 462 465
a 463 85
a 463 91
a 458 82
a 464 86
a 465 462
a 466 467
a 466 468
a 466 469
a 466 470
a 466 471
a 466 472
a 466 473
a 466 474
a 466 475
a 467 466
a 467 476
a 468 466
a 468 469
a 468 477
a 468 473
a 468 478
a 468 479
a 468 480
a 469 466
a 469 468
a 470 466
a 470 479
a 471 466
a 471 472
a 472 466
a 472 471
a 472 481
a 472 482
a 472 483
a 472 484
a 472 485
a 472 486
a 472 487
a 473 466
a 473 468
a 473 488
a 473 489
a 473 490
a 473 491
a 473 492
a 473 493
a 473 494
a 473 495
a 473 496
a 473 497
a 473 498
a 473 499
a 473 500
a 474 466
a 474 477
a 475 466
a 475 480
a 476 467
a 477 468
a 477 474
a 478 468
a 478 501
a 479 468
a 479 470
a 479 502
a 479 503
a 479 504
a 479 505
a 479 506
a 479 507
a 479 508
a 479 509
a 479 510
a 479 511
a 479 512
a 479 513
a 479 514
a 480 468
a 480 475
a 481 472
a 481 484
a 481 515
a 481 516
a 481 517
a 481 518
a 481 519
a 482 472
a 482 520
a 483 472
a 484 472
a 484 481
a 485 472
a 485 515
a 486 472
a 486 516
a 487 472
a 487 519
a 488 473
a 488 521
a 488 522
a 488 489
a 488 490
a 488 491
a 488 492
a 488 493
a 488 494
a 488 495
a 488 496
a 488 497
a 488 498
a 488 499
a 488 500
a 489 473
a 489 488
a 489 523
a 489 524
a 489 490
a 489 491
a 489 492
a 489 493
a 489 494
a 489 495
a 489 496
a 489 497
a 489 498
a 489 499
a 489 500
a 490 473
a 490 488
a 490 489
a 490 525
a 490 526
a 490 491
a 490 492
a 490 493
a 490 494
a 490 495
a 490 496
a 490 497
a 490 498
a 490 499
a 490 500
a 491 473
a 491 488
a 491 489
a 491 490
a 491 527
a 491 528
a 491 492
a 491 493
a 491 494
a 491 495
a 491 496
a 491 497
a 491 498
a 491 499
a 491 500
a 492 473
a 492 488
a 492 489
a 492 490
a 492 491
a 492 529
a 492 530
a 492 493
a 492 494
a 492 495
a 492 496
a 492 497
a 492 498
a 492 499
a 492 500
a 493 473
a 493 488
a 493 489
a 493 490
a 493 491
a 493 492
a 493 494
a 493 495
a 493 496
a 493 497
a 493 498
a 493 499
a 493 500
a 493 531
a 493 532
a 493 533
a 493 534
a 494 473
a 494 488
a 494 489
a 494 490
a 494 491
a 494 492
a 494 493
a 494 495
a 494 496
a 494 497
a 494 498
a 494 499
a 494 500
a 494 531
a 494 532
a 494 533
a 494 534
a 495 473
a 495 488
a 495 489
a 495 490
a 495 491
a 495 492
a 495 493
a 495 494
a 495 496
a 495 497
a 495 498
a 495 499
a 495 500
a 496 473
a 496 488
a 496 489
a 496 490
a 496 491
a 496 492
a 496 493
a 496 494
a 496 495
a 496 497
a 496 498
a 496 499
a 496 500
a 497 473
a 497 488
a 497 489
a 497 490
a 497 491
a 497 492
a 497 493
a 497 494
a 497 495
a 497 496
a 497 498
a 497 499
a 497 500
a 497 531
a 497 532
a 497 533
a 497 534
a 498 473
a 498 488
a 498 489
a 498 490
a 498 491
a 498 492
a 498 493
a 498 494
a 498 495
a 498 496
a 498 497
a 498 499
a 498 500
a 498 531
a 498 532
a 498 533
a 498 534
a 499 473
a 499 488
a 499 489
a 499 490
a 499 491
a 499 492
a 499 493
a 499 494
a 499 495
a 499 496
a 499 497
a 499 498
a 499 500
a 500 473
a 500 488
a 500 489
a 500 490
a 500 491
a 500 492
a 500 493
a 500 494
a 500 495
a 500 496
a 500 497
a 500 498
a 500 499
a 515 481
a 515 485
a 516 481
a 516 486
a 517 481
a 518 481
a 518 535
a 519 481
a 519 487
a 501 478
a 502 479
a 502 522
a 502 536
a 502 503
a 502 504
a 502 505
a 502 506
a 502 507
a 502 508
a 502 509
a 502 510
a 502 511
a 502 512
a 502 513
a 502 514
a 503 479
a 503 502
a 503 524
a 503 537
a 503 504
a 503 505
a 503 506
a 503 507
a 503 508
a 503 509
a 503 510
a 503 511
a 503 512
a 503 513
a 503 514
a 504 479
a 504 502
a 504 503
a 504 526
a 504 538
a 504 505
a 504 506
a 504 507
a 504 508
a 504 509
a 504 510
a 504 511
a 504 512
a 504 513
a 504 514
a 505 479
a 505 502
a 505 503
a 505 504
a 505 528
a 505 539
a 505 506
a 505 507
a 505 508
a 505 509
a 505 510
a 505 511
a 505 512
a 505 513
a 505 514
a 506 479
a 506 502
a 506 503
a 506 504
a 506 505
a 506 530
a 506 540
a 506 507
a 506 508
a 506 509
a 506 510
a 506 511
a 506 512
a 506 513
a 506 514
a 507 479
a 507 502
a 507 503
a 507 504
a 507 505
a 507 506
a 507 508
a 507 509
a 507 510
a 507 511
a 507 512
a 507 513
a 507 514
a 508 479
a 508 502
a 508 503
a 508 504
a 508 505
a 508 506
a 508 507
a 508 509
a 508 510
a 508 511
a 508 512
a 508 513
a 508 514
a 509 479
a 509 502
a 509 503
a 509 504
a 509 505
a 509 506
a 509 507
a 509 508
a 509 510
a 509 511
a 509 512
a 509 513
a 509 514
a 510 479
a 510 502
a 510 503
a 510 504
a 510 505
a 510 506
a 510 507
a 510 508
a 510 509
a 510 511
a 510 512
a 510 513
a 510 514
a 511 479
a 511 502
a 511 503
a 511 504
a 511 505
a 511 506
a 511 507
a 511 508
a 511 509
a 511 510
a 511 512
a 511 513
a 511 514
a 512 479
a 512 502
a 512 503
a 512 504
a 512 505
a 512 506
a 512 507
a 512 508
a 512 509
a 512 510
a 512 511
a 512 513
a 512 514
a 513 479
a 513 502
a 513 503
a 513 504
a 513 505
a 513 506
a 513 507
a 513 508
a 513 509
a 513 510
a 513 511
a 513 512
a 513 514
a 514 479
a 514 502
a 514 503
a 514 504
a 514 505
a 514 506
a 514 507
a 514 508
a 514 509
a 514 510
a 514 511
a 514 512
a 514 513
a 520 482
a 535 518
a 521 541
a 521 522
a 521 542
a 521 536
a 521 543
a 521 544
a 521 488
a 521 545
a 521 546
a 541 521
a 541 547
a 522 521
a 522 542
a 522 548
a 522 488
a 522 549
a 522 502
a 522 550
a 542 521
a 542 522
a 536 521
a 536 502
a 543 521
a 543 544
a 544 521
a 544 543
a 544 551
a 544 552
a 544 553
a 544 554
a 544 555
a 544 556
a 544 557
a 545 521
a 545 548
a 546 521
a 546 550
a 547 541
a 548 522
a 548 545
a 549 522
a 549 558
a 550 522
a 550 546
a 551 544
a 551 554
a 551 559
a 551 560
a 551 561
a 551 562
a 551 563
a 552 544
a 552 564
a 553 544
a 554 544
a 554 551
a 555 544
a 555 559
a 556 544
a 556 560
a 557 544
a 557 563
a 559 551
a 559 555
a 560 551
a 560 556
a 561 551
a 562 551
a 562 565
a 563 551
a 563 557
a 558 549
a 564 552
a 565 562
a 523 566
a 523 524
a 523 567
a 523 537
a 523 568
a 523 569
a 523 489
a 523 570
a 523 571
a 566 523
a 566 572
a 524 523
a 524 567
a 524 573
a 524 489
a 524 574
a 524 503
a 524 575
a 567 523
a 567 524
a 537 523
a 537 503
a 568 523
a 568 569
a 569 523
a 569 568
a 569 576
a 569 577
a 569 578
a 569 579
a 569 580
a 569 581
a 569 582
a 570 523
a 570 573
a 571 523
a 571 575
a 572 566
a 573 524
a 573 570
a 574 524
a 574 583
a 575 524
a 575 571
a 576 569
a 576 579
a 576 584
a 576 585
a 576 586
a 576 587
a 576 588
a 577 569
a 577 589
a 578 569
a 579 569
a 579 576
a 580 569
a 580 584
a 581 569
a 581 585
a 582 569
a 582 588
a 584 576
a 584 580
a 585 576
a 585 581
a 586 576
a 587 576
a 587 590
a 588 576
a 588 582
a 583 574
a 589 577
a 590 587
a 525 591
a 525 526
a 525 592
a 525 538
a 525 593
a 525 594
a 525 490
a 525 595
a 525 596
a 591 525
a 591 597
a 526 525
a 526 592
a 526 598
a 526 490
a 526 599
a 526 504
a 526 600
a 592 525
a 592 526
a 538 525
a 538 504
a 593 525
a 593 594
a 594 525
a 594 593
a 594 601
a 594 602
a 594 603
a 594 604
a 594 605
a 594 606
a 594 607
a 595 525
a 595 598
a 596 525
a 596 600
a 597 591
a 598 526
a 598 595
a 599 526
a 599 608
a 600 526
a 600 596
a 601 594
a 601 604
a 601 609
a 601 610
a 601 611
a 601 612
a 601 613
a 602 594
a 602 614
a 603 594
a 604 594
a 604 601
a 605 594
a 605 609
a 606 594
a 606 610
a 607 594
a 607 613
a 609 601
a 609 605
a 610 601
a 610 606
a 611 601
a 612 601
a 612 615
a 613 601
a 613 607
a 608 599
a 614 602
a 615 612
a 527 616
a 527 528
a 527 617
a 527 539
a 527 618
a 527 619
a 527 491
a 527 620
a 527 621
a 616 527
a 616 622
a 528 527
a 528 617
a 528 623
a 528 491
a 528 624
a 528 505
a 528 625
a 617 527
a 617 528
a 539 527
a 539 505
a 618 527
a 618 619
a 619 527
a 619 618
a 619 626
a 619 627
a 619 628
a 619 629
a 619 630
a 619 631
a 619 632
a 620 527
a 620 623
a 621 527
a 621 625
a 622 616
a 623 528
a 623 620
a 624 528
a 624 633
a 625 528
a 625 621
a 626 619
a 626 629
a 626 634
a 626 635
a 626 636
a 626 637
a 626 638
a 627 619
a 627 639
a 628 619
a 629 619
a 629 626
a 630 619
a 630 634
a 631 619
a 631 635
a 632 619
a 632 638
a 634 626
a 634 630
a 635 626
a 635 631
a 636 626
a 637 626
a 637 640
a 638 626
a 638 632
a 633 624
a 639 627
a 640 637
a 529 641
a 529 530
a 529 642
a 529 540
a 529 643
a 529 644
a 529 492
a 529 645
a 529 646
a 641 529
a 641 647
a 530 529
a 530 642
a 530 648
a 530 492
a 530 649
a 530 506
a 530 650
a 642 529
a 642 530
a 540 529
a 540 506
a 643 529
a 643 644
a 644 529
a 644 643
a 644 651
a 644 652
a 644 653
a 644 654
a 644 655
a 644 656
a 644 657
a 645 529
a 645 648
a 646 529
a 646 650
a 647 641
a 648 530
a 648 645
a 649 530
a 649 658
a 650 530
a 650 646
a 651 644
a 651 654
a 651 659
a 651 660
a 651 661
a 651 662
a 651 663
a 652 644
a 652 664
a 653 644
a 654 644
a 654 651
a 655 644
a 655 659
a 656 644
a 656 660
a 657 644
a 657 663
a 659 651
a 659 655
a 660 651
a 660 656
a 661 651
a 662 651
a 662 665
a 663 651
a 663 657
a 658 649
a 664 652
a 665 662
a 173 118
a 173 666
a 174 118
a 174 125
a 175 118
a 175 194
a 176 118
a 176 177
a 177 118
a 177 176
a 177 667
a 177 668
a 177 669
a 177 670
a 177 671
a 177 672
a 177 673
a 178 118
a 178 192
a 179 118
a 179 195
a 666 173
a 192 125
a 192 178
a 193 125
a 193 674
a 194 125
a 194 175
a 194 205
a 194 171
a 194 161
a 194 135
a 194 675
a 194 676
a 194 677
a 194 678
a 194 679
a 194 680
a 194 681
a 194 682
a 194 683
a 195 125
a 195 179
a 667 177
a 667 670
a 667 684
a 667 685
a 667 686
a 667 687
a 667 688
a 668 177
a 668 689
a 669 177
a 670 177
a 670 667
a 671 177
a 671 684
a 672 177
a 672 685
a 673 177
a 673 688
a 684 667
a 684 671
a 685 667
a 685 672
a 686 667
a 687 667
a 687 690
a 688 667
a 688 673
a 674 193
a 205 194
a 205 127
a 205 198
a 205 171
a 205 161
a 205 135
a 205 675
a 205 676
a 205 677
a 205 678
a 205 679
a 205 680
a 205 681
a 205 682
a 205 683
a 171 194
a 171 205
a 171 117
a 171 165
a 171 161
a 171 135
a 171 675
a 171 676
a 171 677
a 171 678
a 171 679
a 171 680
a 171 681
a 171 682
a 171 683
a 161 194
a 161 205
a 161 171
a 161 114
a 161 154
a 161 135
a 161 675
a 161 676
a 161 677
a 161 678
a 161 679
a 161 680
a 161 681
a 161 682
a 161 683
a 135 194
a 135 205
a 135 171
a 135 161
a 135 101
a 135 103
a 135 675
a 135 676
a 135 677
a 135 678
a 135 679
a 135 680
a 135 681
a 135 682
a 135 683
a 675 194
a 675 205
a 675 171
a 675 161
a 675 135
a 675 676
a 675 677
a 675 678
a 675 679
a 675 680
a 675 681
a 675 682
a 675 683
a 676 194
a 676 205
a 676 171
a 676 161
a 676 135
a 676 675
a 676 677
a 676 678
a 676 679
a 676 680
a 676 681
a 676 682
a 676 683
a 677 194
a 677 205
a 677 171
a 677 161
a 677 135
a 677 675
a 677 676
a 677 678
a 677 679
a 677 680
a 677 681
a 677 682
a 677 683
a 678 194
a 678 205
a 678 171
a 678 161
a 678 135
a 678 675
a 678 676
a 678 677
a 678 679
a 678 680
a 678 681
a 678 682
a 678 683
a 679 194
a 679 205
a 679 171
a 679 161
a 679 135
a 679 675
a 679 676
a 679 677
a 679 678
a 679 680
a 679 681
a 679 682
a 679 683
a 680 194
a 680 205
a 680 171
a 680 161
a 680 135
a 680 675
a 680 676
a 680 677
a 680 678
a 680 679
a 680 681
a 680 682
a 680 683
a 681 194
a 681 205
a 681 171
a 681 161
a 681 135
a 681 675
a 681 676
a 681 677
a 681 678
a 681 679
a 681 680
a 681 682
a 681 683
a 682 194
a 682 205
a 682 171
a 682 161
a 682 135
a 682 675
a 682 676
a 682 677
a 682 678
a 682 679
a 682 680
a 682 681
a 682 683
a 683 194
a 683 205
a 683 171
a 683 161
a 683 135
a 683 675
a 683 676
a 683 677
a 683 678
a 683 679
a 683 680
a 683 681
a 683 682
a 689 668
a 690 687
a 196 126
a 196 691
a 197 126
a 197 127
a 198 126
a 198 205
a 199 126
a 199 200
a 200 126
a 200 199
a 200 692
a 200 693
a 200 694
a 200 695
a 200 696
a 200 697
a 200 698
a 201 126
a 201 203
a 202 126
a 202 206
a 691 196
a 203 127
a 203 201
a 204 127
a 204 699
a 206 127
a 206 202
a 692 200
a 692 695
a 692 700
a 692 701
a 692 702
a 692 703
a 692 704
a 693 200
a 693 705
a 694 200
a 695 200
a 695 692
a 696 200
a 696 700
a 697 200
a 697 701
a 698 200
a 698 704
a 700 692
a 700 696
a 701 692
a 701 697
a 702 692
a 703 692
a 703 706
a 704 692
a 704 698
a 699 204
a 705 693
a 706 703
a 707 708
a 707 454
a 707 709
a 707 455
a 707 710
a 707 711
a 707 712
a 707 713
a 707 714
a 708 707
a 708 715
a 454 707
a 454 709
a 454 716
a 454 717
a 454 436
a 454 718
a 454 719
a 709 707
a 709 454
a 455 707
a 455 436
a 710 707
a 710 711
a 711 707
a 711 710
a 711 720
a 711 721
a 711 722
a 711 723
a 711 724
a 711 725
a 711 726
a 712 707
a 713 707
a 713 716
a 714 707
a 714 719
a 715 708
a 716 454
a 716 713
a 717 454
a 717 727
a 718 454
a 719 454
a 719 714
a 720 711
a 720 723
a 720 728
a 720 729
a 720 730
a 720 731
a 720 732
a 721 711
a 721 733
a 722 711
a 723 711
a 723 720
a 724 711
a 724 728
a 725 711
a 725 729
a 726 711
a 726 732
a 728 720
a 728 724
a 729 720
a 729 725
a 730 720
a 731 720
a 731 734
a 732 720
a 732 726
a 727 717
a 733 721
a 734 731
a 735 736
a 735 456
a 735 737
a 735 457
a 735 738
a 735 739
a 735 740
a 735 741
a 735 742
a 736 735
a 736 743
a 456 735
a 456 737
a 456 744
a 456 745
a 456 437
a 456 746
a 456 747
a 737 735
a 737 456
a 457 735
a 457 437
a 738 735
a 738 739
a 739 735
a 739 738
a 739 748
a 739 749
a 739 750
a 739 751
a 739 752
a 739 753
a 739 754
a 740 735
a 741 735
a 741 744
a 742 735
a 742 747
a 743 736
a 744 456
a 744 741
a 745 456
a 745 755
a 746 456
a 747 456
a 747 742
a 748 739
a 748 751
a 748 756
a 748 757
a 748 758
a 748 759
a 748 760
a 749 739
a 749 761
a 750 739
a 751 739
a 751 748
a 752 739
a 752 756
a 753 739
a 753 757
a 754 739
a 754 760
a 756 748
a 756 752
a 757 748
a 757 753
a 758 748
a 759 748
a 759 762
a 760 748
a 760 754
a 755 745
a 761 749
a 762 759
a 207 128
a 207 763
a 208 128
a 208 129
a 209 128
a 209 216
a 210 128
a 210 211
a 211 128
a 211 210
a 211 764
a 211 765
a 211 766
a 211 767
a 211 768
a 211 769
a 211 770
a 212 128
a 212 214
a 213 128
a 213 217
a 763 207
a 214 129
a 214 212
a 215 129
a 215 771
a 217 129
a 217 213
a 764 211
a 764 767
a 764 772
a 764 773
a 764 774
a 764 775
a 764 776
a 765 211
a 765 777
a 766 211
a 767 211
a 767 764
a 768 211
a 768 772
a 769 211
a 769 773
a 770 211
a 770 776
a 772 764
a 772 768
a 773 764
a 773 769
a 774 764
a 775 764
a 775 778
a 776 764
a 776 770
a 771 215
a 777 765
a 778 775
a 163 115
a 163 779
a 164 115
a 164 117
a 165 115
a 165 171
a 166 115
a 166 167
a 167 115
a 167 166
a 167 780
a 167 781
a 167 782
a 167 783
a 167 784
a 167 785
a 167 786
a 168 115
a 169 115
a 169 172
a 779 163
a 170 117
a 170 787
a 172 117
a 172 169
a 780 167
a 780 783
a 780 788
a 780 789
a 780 790
a 780 791
a 780 792
a 781 167
a 781 793
a 782 167
a 783 167
a 783 780
a 784 167
a 784 788
a 785 167
a 785 789
a 786 167
a 786 792
a 788 780
a 788 784
a 789 780
a 789 785
a 790 780
a 791 780
a 791 794
a 792 780
a 792 786
a 787 170
a 793 781
a 794 791
a 152 113
a 152 795
a 153 113
a 153 114
a 154 113
a 154 161
a 155 113
a 155 156
a 156 113
a 156 155
a 156 796
a 156 797
a 156 798
a 156 799
a 156 800
a 156 801
a 156 802
a 157 113
a 157 159
a 158 113
a 158 162
a 795 152
a 159 114
a 159 157
a 160 114
a 160 803
a 162 114
a 162 158
a 796 156
a 796 799
a 796 804
a 796 805
a 796 806
a 796 807
a 796 808
a 797 156
a 797 809
a 798 156
a 799 156
a 799 796
a 800 156
a 800 804
a 801 156
a 801 805
a 802 156
a 802 808
a 804 796
a 804 800
a 805 796
a 805 801
a 806 796
a 807 796
a 807 810
a 808 796
a 808 802
a 803 160
a 809 797
a 810 807
a 132 100
a 133 101
a 133 107
a 134 101
a 134 811
a 136 101
a 136 108
a 137 105
a 137 140
a 137 812
a 137 813
a 137 814
a 137 815
a 137 816
a 138 105
a 138 817
a 139 105
a 140 105
a 140 137
a 141 105
a 141 812
a 142 105
a 142 813
a 143 105
a 143 816
a 812 137
a 812 141
a 813 137
a 813 142
a 814 137
a 815 137
a 815 818
a 816 137
a 816 143
a 811 134
a 817 138
a 818 815
a 180 119
a 180 120
a 180 181
a 180 121
a 180 182
a 180 122
a 180 183
a 180 123
a 180 184
a 180 124
a 180 185
a 180 819
a 180 820
a 180 821
a 180 822
a 180 823
a 180 824
a 180 825
a 180 826
a 181 119
a 181 180
a 181 120
a 181 121
a 181 182
a 181 122
a 181 183
a 181 123
a 181 184
a 181 124
a 181 185
a 181 819
a 181 820
a 181 821
a 181 822
a 181 823
a 181 824
a 181 825
a 181 826
a 182 119
a 182 180
a 182 120
a 182 181
a 182 121
a 182 122
a 182 183
a 182 123
a 182 184
a 182 124
a 182 185
a 182 819
a 182 820
a 182 821
a 182 822
a 182 823
a 182 824
a 182 825
a 182 826
a 183 119
a 183 180
a 183 120
a 183 181
a 183 121
a 183 182
a 183 122
a 183 123
a 183 184
a 183 124
a 183 185
a 183 819
a 183 820
a 183 821
a 183 822
a 183 823
a 183 824
a 183 825
a 183 826
a 184 119
a 184 180
a 184 120
a 184 181
a 184 121
a 184 182
a 184 122
a 184 183
a 184 123
a 184 124
a 184 185
a 184 827
a 184 828
a 184 829
a 184 830
a 184 831
a 184 832
a 184 833
a 184 834
a 184 835
a 184 836
a 184 837
a 184 838
a 184 256
a 184 839
a 184 257
a 184 840
a 184 841
a 185 119
a 185 180
a 185 120
a 185 181
a 185 121
a 185 182
a 185 122
a 185 183
a 185 123
a 185 184
a 185 124
a 185 827
a 185 828
a 185 829
a 185 830
a 185 831
a 185 832
a 185 833
a 185 834
a 185 835
a 185 836
a 185 837
a 185 838
a 185 256
a 185 839
a 185 257
a 185 840
a 185 841
a 186 119
a 186 842
a 819 180
a 819 181
a 819 182
a 819 183
a 819 820
a 819 821
a 819 822
a 819 823
a 819 824
a 819 825
a 819 826
a 820 180
a 820 181
a 820 182
a 820 183
a 820 819
a 820 821
a 820 822
a 820 823
a 820 824
a 820 825
a 820 826
a 821 180
a 821 181
a 821 182
a 821 183
a 821 819
a 821 820
a 821 822
a 821 823
a 821 824
a 821 825
a 821 826
a 822 180
a 822 181
a 822 182
a 822 183
a 822 819
a 822 820
a 822 821
a 822 823
a 822 824
a 822 825
a 822 826
a 823 180
a 823 181
a 823 182
a 823 183
a 823 819
a 823 820
a 823 821
a 823 822
a 823 824
a 823 825
a 823 826
a 823 843
a 823 844
a 824 180
a 824 181
a 824 182
a 824 183
a 824 819
a 824 820
a 824 821
a 824 822
a 824 823
a 824 825
a 824 826
a 824 843
a 824 844
a 825 180
a 825 181
a 825 182
a 825 183
a 825 819
a 825 820
a 825 821
a 825 822
a 825 823
a 825 824
a 825 826
a 826 180
a 826 181
a 826 182
a 826 183
a 826 819
a 826 820
a 826 821
a 826 822
a 826 823
a 826 824
a 826 825
a 187 120
a 187 845
a 188 121
a 188 846
a 189 122
a 189 847
a 190 123
a 190 848
a 827 184
a 827 185
a 827 828
a 827 829
a 827 830
a 827 831
a 827 832
a 827 833
a 827 834
a 827 835
a 827 836
a 827 837
a 827 838
a 827 256
a 827 839
a 827 257
a 827 840
a 827 841
a 828 184
a 828 185
a 828 827
a 828 829
a 828 830
a 828 831
a 828 832
a 828 833
a 828 834
a 828 835
a 828 836
a 828 837
a 828 838
a 828 256
a 828 839
a 828 257
a 828 840
a 828 841
a 829 184
a 829 185
a 829 827
a 829 828
a 829 830
a 829 831
a 829 832
a 829 833
a 829 834
a 829 835
a 829 836
a 829 837
a 829 838
a 829 256
a 829 839
a 829 257
a 829 840
a 829 841
a 830 184
a 830 185
a 830 827
a 830 828
a 830 829
a 830 831
a 830 832
a 830 833
a 830 834
a 830 835
a 830 836
a 830 837
a 830 838
a 830 256
a 830 839
a 830 257
a 830 840
a 830 841
a 831 184
a 831 185
a 831 827
a 831 828
a 831 829
a 831 830
a 831 832
a 831 833
a 831 834
a 831 835
a 831 836
a 831 837
a 831 838
a 831 256
a 831 839
a 831 257
a 831 840
a 831 841
a 832 184
a 832 185
a 832 827
a 832 828
a 832 829
a 832 830
a 832 831
a 832 833
a 832 834
a 832 835
a 832 836
a 832 837
a 832 838
a 832 256
a 832 839
a 832 257
a 832 840
a 832 841
a 833 184
a 833 185
a 833 827
a 833 828
a 833 829
a 833 830
a 833 831
a 833 832
a 833 834
a 833 835
a 833 836
a 833 837
a 833 838
a 833 256
a 833 839
a 833 257
a 833 840
a 833 841
a 834 184
a 834 185
a 834 827
a 834 828
a 834 829
a 834 830
a 834 831
a 834 832
a 834 833
a 834 835
a 834 836
a 834 837
a 834 838
a 834 256
a 834 839
a 834 257
a 834 840
a 834 841
a 835 184
a 835 185
a 835 827
a 835 828
a 835 829
a 835 830
a 835 831
a 835 832
a 835 833
a 835 834
a 835 836
a 835 837
a 835 838
a 835 256
a 835 839
a 835 257
a 835 840
a 835 841
a 836 184
a 836 185
a 836 827
a 836 828
a 836 829
a 836 830
a 836 831
a 836 832
a 836 833
a 836 834
a 836 835
a 836 837
a 836 838
a 836 256
a 836 839
a 836 257
a 836 840
a 836 841
a 837 184
a 837 185
a 837 827
a 837 828
a 837 829
a 837 830
a 837 831
a 837 832
a 837 833
a 837 834
a 837 835
a 837 836
a 837 838
a 837 256
a 837 839
a 837 257
a 837 840
a 837 841
a 838 184
a 838 185
a 838 827
a 838 828
a 838 829
a 838 830
a 838 831
a 838 832
a 838 833
a 838 834
a 838 835
a 838 836
a 838 837
a 838 256
a 838 839
a 838 257
a 838 840
a 838 841
a 256 184
a 256 185
a 256 827
a 256 828
a 256 829
a 256 830
a 256 831
a 256 832
a 256 833
a 256 834
a 256 835
a 256 836
a 256 837
a 256 838
a 256 839
a 256 257
a 256 840
a 256 841
a 256 237
a 256 258
a 256 259
a 256 260
a 256 261
a 256 262
a 256 263
a 256 264
a 256 265
a 256 266
a 256 267
a 256 268
a 256 269
a 256 270
a 256 271
a 256 272
a 256 273
a 256 274
a 256 275
a 256 276
a 256 277
a 256 278
a 256 279
a 256 280
a 256 281
a 256 282
a 256 283
a 256 284
a 256 285
a 256 286
a 256 287
a 256 288
a 256 289
a 256 290
a 256 291
a 256 292
a 256 293
a 256 294
a 256 295
a 256 296
a 256 297
a 256 298
a 256 299
a 256 300
a 256 301
a 256 302
a 256 303
a 256 304
a 256 305
a 256 306
a 256 307
a 256 308
a 256 309
a 256 310
a 256 311
a 256 312
a 839 184
a 839 185
a 839 827
a 839 828
a 839 829
a 839 830
a 839 831
a 839 832
a 839 833
a 839 834
a 839 835
a 839 836
a 839 837
a 839 838
a 839 256
a 839 257
a 839 840
a 839 841
a 257 184
a 257 185
a 257 827
a 257 828
a 257 829
a 257 830
a 257 831
a 257 832
a 257 833
a 257 834
a 257 835
a 257 836
a 257 837
a 257 838
a 257 256
a 257 839
a 257 840
a 257 841
a 257 237
a 257 258
a 257 259
a 257 260
a 257 261
a 257 262
a 257 263
a 257 264
a 257 265
a 257 266
a 257 267
a 257 268
a 257 269
a 257 270
a 257 271
a 257 272
a 257 273
a 257 274
a 257 275
a 257 276
a 257 277
a 257 278
a 257 279
a 257 280
a 257 281
a 257 282
a 257 283
a 257 284
a 257 285
a 257 286
a 257 287
a 257 288
a 257 289
a 257 290
a 257 291
a 257 292
a 257 293
a 257 294
a 257 295
a 257 296
a 257 297
a 257 298
a 257 299
a 257 300
a 257 301
a 257 302
a 257 303
a 257 304
a 257 305
a 257 306
a 257 307
a 257 308
a 257 309
a 257 310
a 257 311
a 257 312
a 840 184
a 840 185
a 840 827
a 840 828
a 840 829
a 840 830
a 840 831
a 840 832
a 840 833
a 840 834
a 840 835
a 840 836
a 840 837
a 840 838
a 840 256
a 840 839
a 840 257
a 840 841
a 841 184
a 841 185
a 841 827
a 841 828
a 841 829
a 841 830
a 841 831
a 841 832
a 841 833
a 841 834
a 841 835
a 841 836
a 841 837
a 841 838
a 841 256
a 841 839
a 841 257
a 841 840
a 191 124
a 191 849
a 846 188
a 847 189
a 842 186
a 845 187
a 848 190
a 849 191
a 130 92
a 130 93
a 130 131
a 130 850
a 131 92
a 131 93
a 131 130
a 131 851
a 531 493
a 531 494
a 531 497
a 531 498
a 531 532
a 531 533
a 531 534
a 531 852
a 532 493
a 532 494
a 532 497
a 532 498
a 532 531
a 532 533
a 532 534
a 532 853
a 533 493
a 533 494
a 533 497
a 533 498
a 533 531
a 533 532
a 533 534
a 533 854
a 534 493
a 534 494
a 534 497
a 534 498
a 534 531
a 534 532
a 534 533
a 534 855
a 843 823
a 843 824
a 843 844
a 843 856
a 844 823
a 844 824
a 844 843
a 844 857
a 262 256
a 262 257
a 262 237
a 262 258
a 262 259
a 262 260
a 262 261
a 262 263
a 262 264
a 262 265
a 262 266
a 262 267
a 262 268
a 262 269
a 262 270
a 262 271
a 262 272
a 262 273
a 262 858
a 262 274
a 262 275
a 262 276
a 262 277
a 262 278
a 262 279
a 262 280
a 262 281
a 262 282
a 262 283
a 262 284
a 262 285
a 262 286
a 262 287
a 262 288
a 262 289
a 262 290
a 262 291
a 262 292
a 262 293
a 262 294
a 262 295
a 262 296
a 262 297
a 262 298
a 262 299
a 262 300
a 262 301
a 262 302
a 262 303
a 262 304
a 262 305
a 262 306
a 262 307
a 262 308
a 262 309
a 262 310
a 262 311
a 262 312
a 263 256
a 263 257
a 263 237
a 263 258
a 263 259
a 263 260
a 263 261
a 263 262
a 263 264
a 263 265
a 263 266
a 263 267
a 263 268
a 263 269
a 263 270
a 263 271
a 263 272
a 263 273
a 263 274
a 263 275
a 263 276
a 263 277
a 263 278
a 263 279
a 263 280
a 263 281
a 263 282
a 263 283
a 263 284
a 263 285
a 263 286
a 263 287
a 263 288
a 263 289
a 263 290
a 263 291
a 263 292
a 263 293
a 263 294
a 263 295
a 263 296
a 263 297
a 263 298
a 263 299
a 263 300
a 263 301
a 263 302
a 263 303
a 263 304
a 263 305
a 263 306
a 263 307
a 263 308
a 263 309
a 263 310
a 263 311
a 263 312
a 264 256
a 264 257
a 264 237
a 264 258
a 264 259
a 264 260
a 264 261
a 264 262
a 264 263
a 264 265
a 264 266
a 264 267
a 264 268
a 264 269
a 264 270
a 264 271
a 264 272
a 264 273
a 264 274
a 264 275
a 264 276
a 264 277
a 264 278
a 264 279
a 264 280
a 264 281
a 264 282
a 264 283
a 264 284
a 264 285
a 264 286
a 264 287
a 264 288
a 264 289
a 264 290
a 264 291
a 264 292
a 264 293
a 264 294
a 264 295
a 264 296
a 264 297
a 264 298
a 264 299
a 264 300
a 264 301
a 264 302
a 264 303
a 264 304
a 264 305
a 264 306
a 264 307
a 264 308
a 264 309
a 264 310
a 264 311
a 264 312
a 265 256
a 265 257
a 265 237
a 265 258
a 265 259
a 265 260
a 265 261
a 265 262
a 265 263
a 265 264
a 265 266
a 265 267
a 265 268
a 265 269
a 265 270
a 265 271
a 265 272
a 265 273
a 265 274
a 265 275
a 265 276
a 265 277
a 265 278
a 265 279
a 265 280
a 265 281
a 265 282
a 265 283
a 265 284
a 265 285
a 265 286
a 265 287
a 265 288
a 265 289
a 265 290
a 265 291
a 265 292
a 265 293
a 265 294
a 265 295
a 265 296
a 265 297
a 265 298
a 265 299
a 265 300
a 265 301
a 265 302
a 265 303
a 265 304
a 265 305
a 265 306
a 265 307
a 265 308
a 265 309
a 265 310
a 265 311
a 265 312
a 266 256
a 266 257
a 266 237
a 266 258
a 266 259
a 266 260
a 266 261
a 266 262
a 266 263
a 266 264
a 266 265
a 266 267
a 266 268
a 266 269
a 266 270
a 266 271
a 266 272
a 266 273
a 266 274
a 266 275
a 266 276
a 266 277
a 266 278
a 266 279
a 266 280
a 266 281
a 266 282
a 266 283
a 266 284
a 266 285
a 266 286
a 266 287
a 266 288
a 266 289
a 266 290
a 266 291
a 266 292
a 266 293
a 266 294
a 266 295
a 266 296
a 266 297
a 266 298
a 266 299
a 266 300
a 266 301
a 266 302
a 266 303
a 266 304
a 266 305
a 266 306
a 266 307
a 266 308
a 266 309
a 266 310
a 266 311
a 266 312
a 267 256
a 267 257
a 267 237
a 267 258
a 267 259
a 267 260
a 267 261
a 267 262
a 267 263
a 267 264
a 267 265
a 267 266
a 267 268
a 267 269
a 267 270
a 267 271
a 267 272
a 267 273
a 267 274
a 267 275
a 267 276
a 267 277
a 267 278
a 267 279
a 267 280
a 267 281
a 267 282
a 267 283
a 267 284
a 267 285
a 267 286
a 267 287
a 267 288
a 267 289
a 267 290
a 267 291
a 267 292
a 267 293
a 267 294
a 267 295
a 267 296
a 267 297
a 267 298
a 267 299
a 267 300
a 267 301
a 267 302
a 267 303
a 267 304
a 267 305
a 267 306
a 267 307
a 267 308
a 267 309
a 267 310
a 267 311
a 267 312
a 268 256
a 268 257
a 268 237
a 268 258
a 268 259
a 268 260
a 268 261
a 268 262
a 268 263
a 268 264
a 268 265
a 268 266
a 268 267
a 268 269
a 268 270
a 268 271
a 268 272
a 268 273
a 268 274
a 268 275
a 268 276
a 268 277
a 268 278
a 268 279
a 268 280
a 268 281
a 268 282
a 268 283
a 268 284
a 268 285
a 268 286
a 268 287
a 268 288
a 268 289
a 268 290
a 268 291
a 268 292
a 268 293
a 268 294
a 268 295
a 268 296
a 268 297
a 268 298
a 268 299
a 268 300
a 268 301
a 268 302
a 268 303
a 268 304
a 268 305
a 268 306
a 268 307
a 268 308
a 268 309
a 268 310
a 268 311
a 268 312
a 269 256
a 269 257
a 269 237
a 269 258
a 269 259
a 269 260
a 269 261
a 269 262
a 269 263
a 269 264
a 269 265
a 269 266
a 269 267
a 269 268
a 269 270
a 269 271
a 269 272
a 269 273
a 269 274
a 269 275
a 269 276
a 269 277
a 269 278
a 269 279
a 269 280
a 269 281
a 269 282
a 269 283
a 269 284
a 269 285
a 269 286
a 269 287
a 269 288
a 269 289
a 269 290
a 269 291
a 269 292
a 269 293
a 269 294
a 269 295
a 269 296
a 269 297
a 269 298
a 269 299
a 269 300
a 269 301
a 269 302
a 269 303
a 269 304
a 269 305
a 269 306
a 269 307
a 269 308
a 269 309
a 269 310
a 269 311
a 269 312
a 270 256
a 270 257
a 270 237
a 270 258
a 270 259
a 270 260
a 270 261
a 270 262
a 270 263
a 270 264
a 270 265
a 270 266
a 270 267
a 270 268
a 270 269
a 270 271
a 270 272
a 270 273
a 270 274
a 270 275
a 270 276
a 270 277
a 270 278
a 270 279
a 270 280
a 270 281
a 270 282
a 270 283
a 270 284
a 270 285
a 270 286
a 270 287
a 270 288
a 270 289
a 270 290
a 270 291
a 270 292
a 270 293
a 270 294
a 270 295
a 270 296
a 270 297
a 270 298
a 270 299
a 270 300
a 270 301
a 270 302
a 270 303
a 270 304
a 270 305
a 270 306
a 270 307
a 270 308
a 270 309
a 270 310
a 270 311
a 270 312
a 271 256
a 271 257
a 271 237
a 271 258
a 271 259
a 271 260
a 271 261
a 271 262
a 271 263
a 271 264
a 271 265
a 271 266
a 271 267
a 271 268
a 271 269
a 271 270
a 271 272
a 271 273
a 271 274
a 271 275
a 271 276
a 271 277
a 271 278
a 271 279
a 271 280
a 271 281
a 271 282
a 271 283
a 271 284
a 271 285
a 271 286
a 271 287
a 271 288
a 271 289
a 271 290
a 271 291
a 271 292
a 271 293
a 271 294
a 271 295
a 271 296
a 271 297
a 271 298
a 271 299
a 271 300
a 271 301
a 271 302
a 271 303
a 271 304
a 271 305
a 271 306
a 271 307
a 271 308
a 271 309
a 271 310
a 271 311
a 271 312
a 272 256
a 272 257
a 272 237
a 272 258
a 272 259
a 272 260
a 272 261
a 272 262
a 272 263
a 272 264
a 272 265
a 272 266
a 272 267
a 272 268
a 272 269
a 272 270
a 272 271
a 272 273
a 272 274
a 272 275
a 272 276
a 272 277
a 272 278
a 272 279
a 272 280
a 272 281
a 272 282
a 272 283
a 272 284
a 272 285
a 272 286
a 272 287
a 272 288
a 272 289
a 272 290
a 272 291
a 272 292
a 272 293
a 272 294
a 272 295
a 272 296
a 272 297
a 272 298
a 272 299
a 272 300
a 272 301
a 272 302
a 272 303
a 272 304
a 272 305
a 272 306
a 272 307
a 272 308
a 272 309
a 272 310
a 272 311
a 272 312
a 273 256
a 273 257
a 273 237
a 273 258
a 273 259
a 273 260
a 273 261
a 273 262
a 273 263
a 273 264
a 273 265
a 273 266
a 273 267
a 273 268
a 273 269
a 273 270
a 273 271
a 273 272
a 273 859
a 273 274
a 273 275
a 273 276
a 273 277
a 273 278
a 273 279
a 273 280
a 273 281
a 273 282
a 273 283
a 273 284
a 273 285
a 273 286
a 273 287
a 273 288
a 273 289
a 273 290
a 273 291
a 273 292
a 273 293
a 273 294
a 273 295
a 273 296
a 273 297
a 273 298
a 273 299
a 273 300
a 273 301
a 273 302
a 273 303
a 273 304
a 273 305
a 273 306
a 273 307
a 273 308
a 273 309
a 273 310
a 273 311
a 273 312
a 274 256
a 274 257
a 274 237
a 274 258
a 274 259
a 274 260
a 274 261
a 274 262
a 274 263
a 274 264
a 274 265
a 274 266
a 274 267
a 274 268
a 274 269
a 274 270
a 274 271
a 274 272
a 274 273
a 274 275
a 274 276
a 274 277
a 274 278
a 274 279
a 274 280
a 274 281
a 274 282
a 274 283
a 274 284
a 274 285
a 274 286
a 274 287
a 274 288
a 274 289
a 274 290
a 274 291
a 274 292
a 274 293
a 274 294
a 274 295
a 274 296
a 274 297
a 274 298
a 274 299
a 274 300
a 274 301
a 274 302
a 274 303
a 274 304
a 274 305
a 274 306
a 274 307
a 274 308
a 274 309
a 274 310
a 274 311
a 274 312
a 275 256
a 275 257
a 275 237
a 275 258
a 275 259
a 275 260
a 275 261
a 275 262
a 275 263
a 275 264
a 275 265
a 275 266
a 275 267
a 275 268
a 275 269
a 275 270
a 275 271
a 275 272
a 275 273
a 275 274
a 275 276
a 275 277
a 275 278
a 275 279
a 275 280
a 275 281
a 275 282
a 275 283
a 275 284
a 275 285
a 275 286
a 275 287
a 275 288
a 275 289
a 275 290
a 275 291
a 275 292
a 275 293
a 275 294
a 275 295
a 275 296
a 275 297
a 275 298
a 275 299
a 275 300
a 275 301
a 275 302
a 275 303
a 275 304
a 275 305
a 275 306
a 275 307
a 275 308
a 275 309
a 275 310
a 275 311
a 275 312
a 276 256
a 276 257
a 276 237
a 276 258
a 276 259
a 276 260
a 276 261
a 276 262
a 276 263
a 276 264
a 276 265
a 276 266
a 276 267
a 276 268
a 276 269
a 276 270
a 276 271
a 276 272
a 276 273
a 276 274
a 276 275
a 276 277
a 276 278
a 276 279
a 276 280
a 276 281
a 276 282
a 276 283
a 276 284
a 276 285
a 276 286
a 276 287
a 276 288
a 276 289
a 276 290
a 276 291
a 276 292
a 276 293
a 276 294
a 276 295
a 276 296
a 276 297
a 276 298
a 276 299
a 276 300
a 276 301
a 276 302
a 276 303
a 276 304
a 276 305
a 276 306
a 276 307
a 276 308
a 276 309
a 276 310
a 276 311
a 276 312
a 277 256
a 277 257
a 277 237
a 277 258
a 277 259
a 277 260
a 277 261
a 277 262
a 277 263
a 277 264
a 277 265
a 277 266
a 277 267
a 277 268
a 277 269
a 277 270
a 277 271
a 277 272
a 277 273
a 277 274
a 277 275
a 277 276
a 277 278
a 277 279
a 277 280
a 277 281
a 277 282
a 277 283
a 277 284
a 277 285
a 277 286
a 277 287
a 277 288
a 277 289
a 277 290
a 277 291
a 277 860
a 277 292
a 277 293
a 277 294
a 277 295
a 277 296
a 277 297
a 277 298
a 277 299
a 277 300
a 277 301
a 277 302
a 277 303
a 277 304
a 277 305
a 277 306
a 277 307
a 277 308
a 277 309
a 277 310
a 277 311
a 277 312
a 278 256
a 278 257
a 278 237
a 278 258
a 278 259
a 278 260
a 278 261
a 278 262
a 278 263
a 278 264
a 278 265
a 278 266
a 278 267
a 278 268
a 278 269
a 278 270
a 278 271
a 278 272
a 278 273
a 278 274
a 278 275
a 278 276
a 278 277
a 278 279
a 278 280
a 278 281
a 278 282
a 278 283
a 278 284
a 278 285
a 278 286
a 278 287
a 278 288
a 278 289
a 278 290
a 278 291
a 278 292
a 278 293
a 278 294
a 278 295
a 278 296
a 278 297
a 278 298
a 278 299
a 278 300
a 278 301
a 278 302
a 278 303
a 278 304
a 278 305
a 278 306
a 278 307
a 278 308
a 278 309
a 278 310
a 278 311
a 278 312
a 278 861
a 278 862
a 278 863
a 279 256
a 279 257
a 279 237
a 279 258
a 279 259
a 279 260
a 279 261
a 279 262
a 279 263
a 279 264
a 279 265
a 279 266
a 279 267
a 279 268
a 279 269
a 279 270
a 279 271
a 279 272
a 279 273
a 279 864
a 279 274
a 279 275
a 279 276
a 279 277
a 279 278
a 279 280
a 279 281
a 279 282
a 279 283
a 279 284
a 279 285
a 279 286
a 279 287
a 279 288
a 279 289
a 279 290
a 279 291
a 279 292
a 279 293
a 279 294
a 279 295
a 279 296
a 279 297
a 279 298
a 279 299
a 279 300
a 279 301
a 279 302
a 279 303
a 279 304
a 279 305
a 279 306
a 279 307
a 279 308
a 279 309
a 279 310
a 279 311
a 279 312
a 280 256
a 280 257
a 280 237
a 280 258
a 280 259
a 280 260
a 280 261
a 280 262
a 280 263
a 280 264
a 280 265
a 280 266
a 280 267
a 280 268
a 280 269
a 280 270
a 280 271
a 280 272
a 280 273
a 280 274
a 280 275
a 280 276
a 280 277
a 280 278
a 280 279
a 280 281
a 280 282
a 280 283
a 280 284
a 280 285
a 280 286
a 280 287
a 280 288
a 280 289
a 280 290
a 280 291
a 280 292
a 280 293
a 280 294
a 280 295
a 280 296
a 280 297
a 280 298
a 280 299
a 280 300
a 280 301
a 280 302
a 280 303
a 280 304
a 280 305
a 280 306
a 280 307
a 280 308
a 280 309
a 280 310
a 280 311
a 280 312
a 281 256
a 281 257
a 281 237
a 281 258
a 281 259
a 281 260
a 281 261
a 281 262
a 281 263
a 281 264
a 281 265
a 281 266
a 281 267
a 281 268
a 281 269
a 281 270
a 281 271
a 281 272
a 281 273
a 281 274
a 281 275
a 281 276
a 281 277
a 281 278
a 281 279
a 281 280
a 281 282
a 281 283
a 281 284
a 281 285
a 281 286
a 281 287
a 281 288
a 281 289
a 281 290
a 281 291
a 281 292
a 281 293
a 281 294
a 281 295
a 281 296
a 281 297
a 281 298
a 281 299
a 281 300
a 281 301
a 281 302
a 281 303
a 281 304
a 281 305
a 281 306
a 281 307
a 281 308
a 281 309
a 281 310
a 281 311
a 281 312
a 282 256
a 282 257
a 282 237
a 282 258
a 282 259
a 282 260
a 282 261
a 282 262
a 282 263
a 282 264
a 282 265
a 282 266
a 282 267
a 282 268
a 282 269
a 282 270
a 282 271
a 282 272
a 282 273
a 282 274
a 282 275
a 282 276
a 282 277
a 282 278
a 282 279
a 282 280
a 282 281
a 282 283
a 282 284
a 282 285
a 282 286
a 282 287
a 282 288
a 282 289
a 282 290
a 282 291
a 282 292
a 282 293
a 282 294
a 282 295
a 282 296
a 282 297
a 282 298
a 282 299
a 282 300
a 282 301
a 282 302
a 282 303
a 282 304
a 282 305
a 282 306
a 282 307
a 282 308
a 282 309
a 282 310
a 282 311
a 282 312
a 282 861
a 282 862
a 282 863
a 283 256
a 283 257
a 283 237
a 283 258
a 283 259
a 283 260
a 283 261
a 283 262
a 283 263
a 283 264
a 283 265
a 283 266
a 283 267
a 283 268
a 283 269
a 283 270
a 283 271
a 283 272
a 283 273
a 283 274
a 283 275
a 283 276
a 283 277
a 283 278
a 283 279
a 283 280
a 283 281
a 283 282
a 283 284
a 283 285
a 283 286
a 283 287
a 283 288
a 283 289
a 283 290
a 283 291
a 283 292
a 283 293
a 283 294
a 283 295
a 283 296
a 283 297
a 283 298
a 283 299
a 283 300
a 283 301
a 283 302
a 283 303
a 283 304
a 283 305
a 283 306
a 283 307
a 283 308
a 283 309
a 283 310
a 283 311
a 283 312
a 284 256
a 284 257
a 284 237
a 284 258
a 284 259
a 284 260
a 284 261
a 284 262
a 284 263
a 284 264
a 284 265
a 284 266
a 284 267
a 284 268
a 284 269
a 284 270
a 284 271
a 284 272
a 284 273
a 284 274
a 284 275
a 284 276
a 284 277
a 284 278
a 284 279
a 284 280
a 284 281
a 284 282
a 284 283
a 284 285
a 284 286
a 284 287
a 284 288
a 284 289
a 284 290
a 284 291
a 284 292
a 284 293
a 284 294
a 284 295
a 284 296
a 284 297
a 284 298
a 284 299
a 284 300
a 284 301
a 284 302
a 284 303
a 284 304
a 284 305
a 284 306
a 284 307
a 284 308
a 284 309
a 284 310
a 284 311
a 284 312
a 285 256
a 285 257
a 285 237
a 285 258
a 285 259
a 285 260
a 285 261
a 285 262
a 285 263
a 285 264
a 285 265
a 285 266
a 285 267
a 285 268
a 285 269
a 285 270
a 285 271
a 285 272
a 285 273
a 285 274
a 285 275
a 285 276
a 285 277
a 285 278
a 285 279
a 285 280
a 285 281
a 285 282
a 285 283
a 285 284
a 285 286
a 285 287
a 285 288
a 285 289
a 285 290
a 285 291
a 285 292
a 285 293
a 285 294
a 285 295
a 285 296
a 285 297
a 285 298
a 285 299
a 285 300
a 285 301
a 285 302
a 285 303
a 285 304
a 285 305
a 285 306
a 285 307
a 285 308
a 285 309
a 285 310
a 285 311
a 285 312
a 286 256
a 286 257
a 286 237
a 286 258
a 286 259
a 286 260
a 286 261
a 286 262
a 286 263
a 286 264
a 286 265
a 286 266
a 286 267
a 286 268
a 286 269
a 286 270
a 286 271
a 286 272
a 286 273
a 286 274
a 286 275
a 286 276
a 286 277
a 286 278
a 286 279
a 286 280
a 286 281
a 286 282
a 286 283
a 286 284
a 286 285
a 286 287
a 286 288
a 286 289
a 286 290
a 286 291
a 286 292
a 286 293
a 286 294
a 286 295
a 286 296
a 286 297
a 286 298
a 286 299
a 286 300
a 286 301
a 286 302
a 286 303
a 286 304
a 286 305
a 286 306
a 286 307
a 286 308
a 286 309
a 286 310
a 286 311
a 286 312
a 287 256
a 287 257
a 287 237
a 287 258
a 287 259
a 287 260
a 287 261
a 287 262
a 287 263
a 287 264
a 287 265
a 287 266
a 287 267
a 287 268
a 287 269
a 287 270
a 287 271
a 287 272
a 287 273
a 287 274
a 287 275
a 287 276
a 287 277
a 287 278
a 287 279
a 287 280
a 287 281
a 287 282
a 287 283
a 287 284
a 287 285
a 287 286
a 287 288
a 287 289
a 287 290
a 287 291
a 287 292
a 287 293
a 287 294
a 287 295
a 287 296
a 287 297
a 287 298
a 287 299
a 287 300
a 287 301
a 287 302
a 287 303
a 287 304
a 287 305
a 287 306
a 287 307
a 287 308
a 287 309
a 287 310
a 287 311
a 287 312
a 288 256
a 288 257
a 288 237
a 288 258
a 288 259
a 288 260
a 288 261
a 288 262
a 288 263
a 288 264
a 288 265
a 288 266
a 288 267
a 288 268
a 288 269
a 288 270
a 288 271
a 288 272
a 288 273
a 288 274
a 288 275
a 288 276
a 288 277
a 288 278
a 288 279
a 288 280
a 288 281
a 288 282
a 288 283
a 288 284
a 288 285
a 288 286
a 288 287
a 288 289
a 288 290
a 288 291
a 288 292
a 288 293
a 288 294
a 288 295
a 288 296
a 288 297
a 288 298
a 288 299
a 288 300
a 288 301
a 288 302
a 288 303
a 288 304
a 288 305
a 288 306
a 288 307
a 288 308
a 288 309
a 288 310
a 288 311
a 288 312
a 288 861
a 288 862
a 288 863
a 289 256
a 289 257
a 289 237
a 289 258
a 289 259
a 289 260
a 289 261
a 289 262
a 289 263
a 289 264
a 289 265
a 289 266
a 289 267
a 289 268
a 289 269
a 289 270
a 289 271
a 289 272
a 289 273
a 289 274
a 289 275
a 289 276
a 289 277
a 289 278
a 289 279
a 289 280
a 289 281
a 289 282
a 289 283
a 289 284
a 289 285
a 289 286
a 289 287
a 289 288
a 289 290
a 289 291
a 289 292
a 289 293
a 289 294
a 289 295
a 289 296
a 289 297
a 289 298
a 289 299
a 289 300
a 289 301
a 289 302
a 289 303
a 289 304
a 289 305
a 289 306
a 289 307
a 289 308
a 289 309
a 289 310
a 289 311
a 289 312
a 290 256
a 290 257
a 290 237
a 290 258
a 290 259
a 290 260
a 290 261
a 290 262
a 290 263
a 290 264
a 290 265
a 290 266
a 290 267
a 290 268
a 290 269
a 290 270
a 290 271
a 290 272
a 290 273
a 290 274
a 290 275
a 290 276
a 290 277
a 290 278
a 290 279
a 290 280
a 290 281
a 290 282
a 290 283
a 290 284
a 290 285
a 290 286
a 290 287
a 290 288
a 290 289
a 290 865
a 290 291
a 290 292
a 290 866
a 290 293
a 290 294
a 290 867
a 290 295
a 290 296
a 290 297
a 290 298
a 290 299
a 290 300
a 290 301
a 290 302
a 290 303
a 290 304
a 290 305
a 290 306
a 290 307
a 290 308
a 290 309
a 290 310
a 290 311
a 290 312
a 291 256
a 291 257
a 291 237
a 291 258
a 291 259
a 291 260
a 291 261
a 291 262
a 291 263
a 291 264
a 291 265
a 291 266
a 291 267
a 291 268
a 291 269
a 291 270
a 291 271
a 291 272
a 291 273
a 291 274
a 291 275
a 291 276
a 291 277
a 291 278
a 291 279
a 291 280
a 291 281
a 291 282
a 291 283
a 291 284
a 291 285
a 291 286
a 291 287
a 291 288
a 291 289
a 291 290
a 291 868
a 291 292
a 291 293
a 291 294
a 291 295
a 291 296
a 291 297
a 291 298
a 291 299
a 291 300
a 291 301
a 291 302
a 291 303
a 291 304
a 291 305
a 291 306
a 291 307
a 291 308
a 291 309
a 291 310
a 291 311
a 291 312
a 292 256
a 292 257
a 292 237
a 292 258
a 292 259
a 292 260
a 292 261
a 292 262
a 292 263
a 292 264
a 292 265
a 292 266
a 292 267
a 292 268
a 292 269
a 292 270
a 292 271
a 292 272
a 292 273
a 292 274
a 292 275
a 292 276
a 292 277
a 292 278
a 292 279
a 292 280
a 292 281
a 292 282
a 292 283
a 292 284
a 292 285
a 292 286
a 292 287
a 292 288
a 292 289
a 292 290
a 292 865
a 292 291
a 292 866
a 292 293
a 292 294
a 292 867
a 292 295
a 292 296
a 292 297
a 292 298
a 292 299
a 292 300
a 292 301
a 292 302
a 292 303
a 292 304
a 292 305
a 292 306
a 292 307
a 292 308
a 292 309
a 292 310
a 292 311
a 292 312
a 293 256
a 293 257
a 293 237
a 293 258
a 293 259
a 293 260
a 293 261
a 293 262
a 293 263
a 293 264
a 293 265
a 293 266
a 293 267
a 293 268
a 293 269
a 293 270
a 293 271
a 293 272
a 293 273
a 293 274
a 293 275
a 293 276
a 293 277
a 293 278
a 293 279
a 293 280
a 293 281
a 293 282
a 293 283
a 293 284
a 293 285
a 293 286
a 293 287
a 293 288
a 293 289
a 293 290
a 293 291
a 293 869
a 293 292
a 293 294
a 293 295
a 293 296
a 293 297
a 293 298
a 293 299
a 293 300
a 293 301
a 293 302
a 293 303
a 293 304
a 293 305
a 293 306
a 293 307
a 293 308
a 293 309
a 293 310
a 293 311
a 293 312
a 294 256
a 294 257
a 294 237
a 294 258
a 294 259
a 294 260
a 294 261
a 294 262
a 294 263
a 294 264
a 294 265
a 294 266
a 294 267
a 294 268
a 294 269
a 294 270
a 294 271
a 294 272
a 294 273
a 294 274
a 294 275
a 294 276
a 294 277
a 294 278
a 294 279
a 294 280
a 294 281
a 294 282
a 294 283
a 294 284
a 294 285
a 294 286
a 294 287
a 294 288
a 294 289
a 294 290
a 294 865
a 294 291
a 294 292
a 294 866
a 294 293
a 294 867
a 294 295
a 294 296
a 294 297
a 294 298
a 294 299
a 294 300
a 294 301
a 294 302
a 294 303
a 294 304
a 294 305
a 294 306
a 294 307
a 294 308
a 294 309
a 294 310
a 294 311
a 294 312
a 295 256
a 295 257
a 295 237
a 295 258
a 295 259
a 295 260
a 295 261
a 295 262
a 295 263
a 295 264
a 295 265
a 295 266
a 295 267
a 295 268
a 295 269
a 295 270
a 295 271
a 295 272
a 295 273
a 295 274
a 295 275
a 295 276
a 295 277
a 295 278
a 295 279
a 295 280
a 295 281
a 295 282
a 295 283
a 295 284
a 295 285
a 295 286
a 295 287
a 295 288
a 295 289
a 295 290
a 295 291
a 295 292
a 295 293
a 295 294
a 295 296
a 295 297
a 295 298
a 295 299
a 295 300
a 295 301
a 295 302
a 295 303
a 295 304
a 295 305
a 295 306
a 295 307
a 295 308
a 295 309
a 295 310
a 295 311
a 295 312
a 296 256
a 296 257
a 296 237
a 296 258
a 296 259
a 296 260
a 296 261
a 296 262
a 296 263
a 296 264
a 296 265
a 296 266
a 296 267
a 296 268
a 296 269
a 296 270
a 296 271
a 296 272
a 296 273
a 296 274
a 296 275
a 296 276
a 296 277
a 296 278
a 296 279
a 296 280
a 296 281
a 296 282
a 296 283
a 296 284
a 296 285
a 296 286
a 296 287
a 296 288
a 296 289
a 296 290
a 296 291
a 296 860
a 296 292
a 296 293
a 296 294
a 296 295
a 296 297
a 296 298
a 296 299
a 296 300
a 296 301
a 296 302
a 296 303
a 296 304
a 296 305
a 296 306
a 296 307
a 296 308
a 296 309
a 296 310
a 296 311
a 296 312
a 297 256
a 297 257
a 297 237
a 297 258
a 297 259
a 297 260
a 297 261
a 297 262
a 297 263
a 297 264
a 297 265
a 297 266
a 297 267
a 297 268
a 297 269
a 297 270
a 297 271
a 297 272
a 297 273
a 297 274
a 297 275
a 297 276
a 297 277
a 297 278
a 297 279
a 297 280
a 297 281
a 297 282
a 297 283
a 297 284
a 297 285
a 297 286
a 297 287
a 297 288
a 297 289
a 297 290
a 297 291
a 297 292
a 297 293
a 297 294
a 297 295
a 297 296
a 297 298
a 297 299
a 297 300
a 297 301
a 297 302
a 297 303
a 297 304
a 297 305
a 297 306
a 297 307
a 297 308
a 297 309
a 297 310
a 297 311
a 297 312
a 298 256
a 298 257
a 298 237
a 298 258
a 298 259
a 298 260
a 298 261
a 298 262
a 298 263
a 298 264
a 298 265
a 298 266
a 298 267
a 298 268
a 298 269
a 298 270
a 298 271
a 298 272
a 298 273
a 298 274
a 298 275
a 298 276
a 298 277
a 298 278
a 298 279
a 298 280
a 298 281
a 298 282
a 298 283
a 298 284
a 298 285
a 298 286
a 298 287
a 298 288
a 298 289
a 298 290
a 298 291
a 298 292
a 298 293
a 298 294
a 298 295
a 298 296
a 298 297
a 298 299
a 298 300
a 298 301
a 298 302
a 298 303
a 298 304
a 298 305
a 298 306
a 298 307
a 298 308
a 298 309
a 298 310
a 298 311
a 298 312
a 299 256
a 299 257
a 299 237
a 299 258
a 299 259
a 299 260
a 299 261
a 299 262
a 299 263
a 299 264
a 299 265
a 299 266
a 299 267
a 299 268
a 299 269
a 299 270
a 299 271
a 299 272
a 299 273
a 299 274
a 299 275
a 299 276
a 299 277
a 299 278
a 299 279
a 299 280
a 299 281
a 299 282
a 299 283
a 299 284
a 299 285
a 299 286
a 299 287
a 299 288
a 299 289
a 299 290
a 299 291
a 299 292
a 299 293
a 299 294
a 299 295
a 299 296
a 299 297
a 299 298
a 299 300
a 299 301
a 299 302
a 299 303
a 299 304
a 299 305
a 299 306
a 299 307
a 299 308
a 299 309
a 299 310
a 299 311
a 299 312
a 300 256
a 300 257
a 300 237
a 300 258
a 300 259
a 300 260
a 300 261
a 300 262
a 300 263
a 300 264
a 300 265
a 300 266
a 300 267
a 300 268
a 300 269
a 300 270
a 300 271
a 300 272
a 300 273
a 300 274
a 300 275
a 300 276
a 300 277
a 300 278
a 300 279
a 300 280
a 300 281
a 300 282
a 300 283
a 300 284
a 300 285
a 300 286
a 300 287
a 300 288
a 300 289
a 300 290
a 300 291
a 300 292
a 300 293
a 300 294
a 300 295
a 300 296
a 300 297
a 300 298
a 300 299
a 300 301
a 300 302
a 300 303
a 300 304
a 300 870
a 300 305
a 300 306
a 300 307
a 300 308
a 300 309
a 300 310
a 300 311
a 300 312
a 301 256
a 301 257
a 301 237
a 301 258
a 301 259
a 301 260
a 301 261
a 301 262
a 301 263
a 301 264
a 301 265
a 301 266
a 301 267
a 301 268
a 301 269
a 301 270
a 301 271
a 301 272
a 301 273
a 301 274
a 301 275
a 301 276
a 301 277
a 301 278
a 301 279
a 301 280
a 301 281
a 301 282
a 301 283
a 301 284
a 301 285
a 301 286
a 301 287
a 301 288
a 301 289
a 301 290
a 301 291
a 301 292
a 301 293
a 301 294
a 301 295
a 301 296
a 301 297
a 301 298
a 301 299
a 301 300
a 301 302
a 301 303
a 301 304
a 301 305
a 301 306
a 301 307
a 301 308
a 301 309
a 301 310
a 301 311
a 301 312
a 302 256
a 302 257
a 302 237
a 302 258
a 302 259
a 302 260
a 302 261
a 302 262
a 302 263
a 302 264
a 302 265
a 302 266
a 302 267
a 302 268
a 302 269
a 302 270
a 302 271
a 302 272
a 302 273
a 302 274
a 302 275
a 302 276
a 302 277
a 302 278
a 302 279
a 302 280
a 302 281
a 302 282
a 302 283
a 302 284
a 302 285
a 302 286
a 302 287
a 302 288
a 302 289
a 302 290
a 302 291
a 302 292
a 302 293
a 302 294
a 302 295
a 302 296
a 302 297
a 302 298
a 302 299
a 302 300
a 302 301
a 302 303
a 302 304
a 302 870
a 302 305
a 302 306
a 302 307
a 302 308
a 302 309
a 302 310
a 302 311
a 302 312
a 303 256
a 303 257
a 303 237
a 303 258
a 303 259
a 303 260
a 303 261
a 303 262
a 303 263
a 303 264
a 303 265
a 303 266
a 303 267
a 303 268
a 303 269
a 303 270
a 303 271
a 303 272
a 303 273
a 303 274
a 303 275
a 303 276
a 303 277
a 303 278
a 303 279
a 303 280
a 303 281
a 303 282
a 303 283
a 303 284
a 303 285
a 303 286
a 303 287
a 303 288
a 303 289
a 303 290
a 303 291
a 303 292
a 303 293
a 303 294
a 303 295
a 303 296
a 303 297
a 303 298
a 303 299
a 303 300
a 303 301
a 303 302
a 303 304
a 303 305
a 303 306
a 303 307
a 303 308
a 303 309
a 303 310
a 303 311
a 303 312
a 304 256
a 304 257
a 304 237
a 304 258
a 304 259
a 304 260
a 304 261
a 304 262
a 304 263
a 304 264
a 304 265
a 304 266
a 304 267
a 304 268
a 304 269
a 304 270
a 304 271
a 304 272
a 304 273
a 304 274
a 304 275
a 304 276
a 304 277
a 304 278
a 304 279
a 304 280
a 304 281
a 304 282
a 304 283
a 304 284
a 304 285
a 304 286
a 304 287
a 304 288
a 304 289
a 304 290
a 304 291
a 304 292
a 304 293
a 304 294
a 304 295
a 304 296
a 304 297
a 304 298
a 304 299
a 304 300
a 304 301
a 304 302
a 304 303
a 304 305
a 304 306
a 304 307
a 304 308
a 304 309
a 304 310
a 304 311
a 304 312
a 305 256
a 305 257
a 305 237
a 305 258
a 305 259
a 305 260
a 305 261
a 305 262
a 305 263
a 305 264
a 305 265
a 305 266
a 305 267
a 305 268
a 305 269
a 305 270
a 305 271
a 305 272
a 305 273
a 305 274
a 305 275
a 305 276
a 305 277
a 305 278
a 305 279
a 305 280
a 305 281
a 305 282
a 305 283
a 305 284
a 305 285
a 305 286
a 305 287
a 305 288
a 305 289
a 305 290
a 305 291
a 305 292
a 305 293
a 305 294
a 305 295
a 305 296
a 305 297
a 305 298
a 305 299
a 305 300
a 305 301
a 305 302
a 305 303
a 305 304
a 305 306
a 305 307
a 305 308
a 305 309
a 305 310
a 305 311
a 305 312
a 306 256
a 306 257
a 306 237
a 306 258
a 306 259
a 306 260
a 306 261
a 306 262
a 306 263
a 306 264
a 306 265
a 306 266
a 306 267
a 306 268
a 306 269
a 306 270
a 306 271
a 306 272
a 306 273
a 306 274
a 306 275
a 306 276
a 306 277
a 306 278
a 306 279
a 306 280
a 306 281
a 306 282
a 306 283
a 306 284
a 306 285
a 306 286
a 306 287
a 306 288
a 306 289
a 306 290
a 306 291
a 306 292
a 306 293
a 306 294
a 306 295
a 306 296
a 306 297
a 306 298
a 306 299
a 306 300
a 306 301
a 306 302
a 306 303
a 306 304
a 306 305
a 306 307
a 306 308
a 306 309
a 306 310
a 306 311
a 306 312
a 307 256
a 307 257
a 307 237
a 307 258
a 307 259
a 307 260
a 307 261
a 307 262
a 307 263
a 307 264
a 307 265
a 307 266
a 307 267
a 307 268
a 307 269
a 307 270
a 307 271
a 307 272
a 307 273
a 307 274
a 307 275
a 307 276
a 307 277
a 307 278
a 307 279
a 307 280
a 307 281
a 307 282
a 307 283
a 307 284
a 307 285
a 307 286
a 307 287
a 307 288
a 307 289
a 307 290
a 307 291
a 307 292
a 307 293
a 307 294
a 307 295
a 307 296
a 307 297
a 307 298
a 307 299
a 307 300
a 307 301
a 307 302
a 307 303
a 307 304
a 307 305
a 307 306
a 307 308
a 307 309
a 307 310
a 307 311
a 307 312
a 308 256
a 308 257
a 308 237
a 308 258
a 308 259
a 308 260
a 308 261
a 308 262
a 308 263
a 308 264
a 308 265
a 308 266
a 308 267
a 308 268
a 308 269
a 308 270
a 308 271
a 308 272
a 308 273
a 308 274
a 308 275
a 308 276
a 308 277
a 308 278
a 308 279
a 308 280
a 308 281
a 308 282
a 308 283
a 308 284
a 308 285
a 308 286
a 308 287
a 308 288
a 308 289
a 308 290
a 308 291
a 308 292
a 308 293
a 308 294
a 308 295
a 308 296
a 308 297
a 308 298
a 308 299
a 308 300
a 308 301
a 308 302
a 308 303
a 308 304
a 308 305
a 308 306
a 308 307
a 308 309
a 308 310
a 308 311
a 308 312
a 309 256
a 309 257
a 309 237
a 309 258
a 309 259
a 309 260
a 309 261
a 309 262
a 309 263
a 309 264
a 309 265
a 309 266
a 309 267
a 309 268
a 309 269
a 309 270
a 309 271
a 309 272
a 309 273
a 309 274
a 309 275
a 309 276
a 309 277
a 309 278
a 309 279
a 309 280
a 309 281
a 309 282
a 309 283
a 309 284
a 309 285
a 309 286
a 309 287
a 309 288
a 309 289
a 309 290
a 309 291
a 309 292
a 309 293
a 309 294
a 309 295
a 309 296
a 309 297
a 309 298
a 309 299
a 309 300
a 309 301
a 309 302
a 309 303
a 309 304
a 309 305
a 309 306
a 309 307
a 309 308
a 309 310
a 309 311
a 309 312
a 310 256
a 310 257
a 310 237
a 310 258
a 310 259
a 310 260
a 310 261
a 310 262
a 310 263
a 310 264
a 310 265
a 310 266
a 310 267
a 310 268
a 310 269
a 310 270
a 310 271
a 310 272
a 310 273
a 310 274
a 310 275
a 310 276
a 310 277
a 310 278
a 310 279
a 310 280
a 310 281
a 310 282
a 310 283
a 310 284
a 310 285
a 310 286
a 310 287
a 310 288
a 310 289
a 310 290
a 310 291
a 310 292
a 310 293
a 310 294
a 310 295
a 310 296
a 310 297
a 310 298
a 310 299
a 310 300
a 310 301
a 310 302
a 310 303
a 310 304
a 310 870
a 310 305
a 310 306
a 310 307
a 310 308
a 310 309
a 310 311
a 310 312
a 311 256
a 311 257
a 311 237
a 311 258
a 311 259
a 311 260
a 311 261
a 311 262
a 311 263
a 311 264
a 311 265
a 311 266
a 311 267
a 311 268
a 311 269
a 311 270
a 311 271
a 311 272
a 311 273
a 311 274
a 311 275
a 311 276
a 311 277
a 311 278
a 311 279
a 311 280
a 311 281
a 311 282
a 311 283
a 311 284
a 311 285
a 311 286
a 311 287
a 311 288
a 311 289
a 311 290
a 311 291
a 311 292
a 311 293
a 311 294
a 311 295
a 311 296
a 311 297
a 311 298
a 311 299
a 311 300
a 311 301
a 311 302
a 311 303
a 311 304
a 311 305
a 311 306
a 311 307
a 311 308
a 311 309
a 311 310
a 311 312
a 312 256
a 312 257
a 312 237
a 312 258
a 312 259
a 312 260
a 312 261
a 312 262
a 312 263
a 312 264
a 312 265
a 312 266
a 312 267
a 312 268
a 312 269
a 312 270
a 312 271
a 312 272
a 312 273
a 312 274
a 312 275
a 312 276
a 312 277
a 312 278
a 312 279
a 312 280
a 312 281
a 312 282
a 312 283
a 312 284
a 312 285
a 312 286
a 312 287
a 312 288
a 312 289
a 312 290
a 312 291
a 312 292
a 312 293
a 312 294
a 312 295
a 312 296
a 312 297
a 312 298
a 312 299
a 312 300
a 312 301
a 312 302
a 312 303
a 312 304
a 312 305
a 312 306
a 312 307
a 312 308
a 312 309
a 312 310
a 312 311
a 144 109
a 144 110
a 144 145
a 144 146
a 144 871
a 144 872
a 145 109
a 145 110
a 145 144
a 145 146
a 145 147
a 145 872
a 146 109
a 146 110
a 146 144
a 146 145
a 146 148
a 147 109
a 147 145
a 147 148
a 148 109
a 148 146
a 148 147
a 149 109
a 149 873
a 149 150
a 149 151
a 150 109
a 150 149
a 150 151
a 151 109
a 151 149
a 151 150
a 151 874
a 858 262
a 859 273
a 864 279
a 860 277
a 860 869
a 860 296
a 861 278
a 861 282
a 861 288
a 861 875
a 861 876
a 861 877
a 861 878
a 861 879
a 861 880
a 861 881
a 861 882
a 861 883
a 861 884
a 861 885
a 861 886
a 861 887
a 861 888
a 861 889
a 861 890
a 861 891
a 861 892
a 861 893
a 861 894
a 861 895
a 861 896
a 861 897
a 861 898
a 861 899
a 861 900
a 861 901
a 861 902
a 861 903
a 861 904
a 861 905
a 861 906
a 861 907
a 861 908
a 861 909
a 861 910
a 861 911
a 861 912
a 861 913
a 861 914
a 861 915
a 861 916
a 861 917
a 861 918
a 861 919
a 861 920
a 861 921
a 861 922
a 861 923
a 861 924
a 861 925
a 861 926
a 861 927
a 861 928
a 861 929
a 861 930
a 861 931
a 861 932
a 861 933
a 861 934
a 861 935
a 861 936
a 861 937
a 861 938
a 861 939
a 861 940
a 861 941
a 861 942
a 861 943
a 861 944
a 861 945
a 861 946
a 861 947
a 861 948
a 861 949
a 861 950
a 861 951
a 861 952
a 861 953
a 861 862
a 861 863
a 862 278
a 862 282
a 862 288
a 862 861
a 862 863
a 863 278
a 863 282
a 863 288
a 863 861
a 863 862
a 865 290
a 865 292
a 865 866
a 865 294
a 865 867
a 865 954
a 865 955
a 866 290
a 866 865
a 866 292
a 866 294
a 866 867
a 866 956
a 866 957
a 867 290
a 867 865
a 867 292
a 867 866
a 867 294
a 867 958
a 954 865
a 954 959
a 955 865
a 955 960
a 868 291
a 868 869
a 869 868
a 869 860
a 869 293
a 956 866
a 956 961
a 957 866
a 957 962
a 958 867
a 958 963
a 959 954
a 960 955
a 961 956
a 962 957
a 963 958
a 870 300
a 870 302
a 870 964
a 870 310
a 964 870
a 964 965
a 965 964
a 856 843
a 856 966
a 856 967
a 856 968
a 857 844
a 857 969
a 857 970
a 857 971
a 857 871
a 857 972
a 857 973
a 857 974
a 857 975
a 857 976
a 977 978
a 977 979
a 977 980
a 977 967
a 978 977
a 978 979
a 978 980
a 979 977
a 979 978
a 979 980
a 979 970
a 980 977
a 980 978
a 980 979
a 967 977
a 967 856
a 967 966
a 967 968
a 970 979
a 970 857
a 970 969
a 970 971
a 970 871
a 970 972
a 970 973
a 970 974
a 970 975
a 970 976
a 966 856
a 966 967
a 966 968
a 968 856
a 968 966
a 968 967
a 969 857
a 969 970
a 969 971
a 971 857
a 971 969
a 971 970
a 871 857
a 871 970
a 871 144
a 871 972
a 972 857
a 972 970
a 972 871
a 972 872
a 973 857
a 973 970
a 973 974
a 973 975
a 973 976
a 974 857
a 974 970
a 974 973
a 974 975
a 974 976
a 975 857
a 975 970
a 975 973
a 975 974
a 975 976
a 976 857
a 976 970
a 976 973
a 976 974
a 976 975
a 872 144
a 872 145
a 872 972
a 850 130
a 850 981
a 851 131
a 851 982
a 852 531
a 852 983
a 852 984
a 853 532
a 853 985
a 854 533
a 854 986
a 855 534
a 855 987
a 855 988
a 989 990
a 989 991
a 989 992
a 989 993
a 989 994
a 989 995
a 989 996
a 989 997
a 989 983
a 990 989
a 990 991
a 990 992
a 990 993
a 990 994
a 990 995
a 990 996
a 990 998
a 990 999
a 990 1000
a 990 1001
a 990 1002
a 990 1003
a 990 878
a 990 1004
a 990 1005
a 990 1006
a 990 1007
a 990 1008
a 990 1009
a 990 879
a 990 1010
a 990 1011
a 990 880
a 990 1012
a 990 1013
a 990 1014
a 990 1015
a 990 1016
a 990 1017
a 990 1018
a 990 1019
a 991 989
a 991 990
a 991 992
a 991 993
a 991 994
a 991 995
a 991 996
a 991 1020
a 991 985
a 992 989
a 992 990
a 992 991
a 992 993
a 992 994
a 992 995
a 992 996
a 992 1021
a 993 989
a 993 990
a 993 991
a 993 992
a 993 994
a 993 995
a 993 996
a 993 1022
a 993 986
a 994 989
a 994 990
a 994 991
a 994 992
a 994 993
a 994 995
a 994 996
a 994 1001
a 995 989
a 995 990
a 995 991
a 995 992
a 995 993
a 995 994
a 995 996
a 995 1023
a 995 987
a 996 989
a 996 990
a 996 991
a 996 992
a 996 993
a 996 994
a 996 995
a 996 1003
a 997 989
a 997 983
a 983 989
a 983 852
a 983 997
a 983 984
a 998 990
a 998 1024
a 998 1025
a 998 1026
a 998 1021
a 998 1027
a 999 990
a 999 1000
a 999 1001
a 999 1002
a 999 1003
a 999 1028
a 1000 990
a 1000 999
a 1000 1001
a 1000 1002
a 1000 1003
a 1000 878
a 1000 1004
a 1000 1005
a 1000 1006
a 1000 1007
a 1000 1008
a 1000 1009
a 1000 879
a 1000 1010
a 1000 1011
a 1000 880
a 1000 1012
a 1000 1013
a 1000 1014
a 1000 1015
a 1000 1016
a 1000 1017
a 1000 1018
a 1000 1019
a 1001 990
a 1001 994
a 1001 999
a 1001 1000
a 1001 1002
a 1001 1003
a 1002 990
a 1002 999
a 1002 1000
a 1002 1001
a 1002 1003
a 1002 878
a 1002 1004
a 1002 1005
a 1002 1006
a 1002 1007
a 1002 1008
a 1002 1009
a 1002 879
a 1002 1010
a 1002 1011
a 1002 880
a 1002 1012
a 1002 1013
a 1002 1014
a 1002 1015
a 1002 1016
a 1002 1017
a 1002 1018
a 1002 1019
a 1003 990
a 1003 996
a 1003 999
a 1003 1000
a 1003 1001
a 1003 1002
a 878 990
a 878 1000
a 878 1002
a 878 875
a 878 876
a 878 877
a 878 1004
a 878 1005
a 878 1006
a 878 1007
a 878 1008
a 878 1009
a 878 879
a 878 1010
a 878 1011
a 878 880
a 878 1012
a 878 1013
a 878 1014
a 878 1015
a 878 1016
a 878 1017
a 878 1018
a 878 1019
a 878 881
a 878 882
a 878 883
a 878 884
a 878 885
a 878 886
a 878 887
a 878 888
a 878 889
a 878 890
a 878 891
a 878 892
a 878 893
a 878 894
a 878 895
a 878 896
a 878 897
a 878 898
a 878 899
a 878 900
a 878 901
a 878 902
a 878 903
a 878 904
a 878 905
a 878 906
a 878 907
a 878 908
a 878 909
a 878 910
a 878 911
a 878 912
a 878 913
a 878 914
a 878 915
a 878 916
a 878 917
a 878 918
a 878 919
a 878 920
a 878 921
a 878 922
a 878 923
a 878 924
a 878 925
a 878 926
a 878 927
a 878 928
a 878 929
a 878 930
a 878 861
a 878 931
a 878 932
a 878 933
a 878 934
a 878 935
a 878 936
a 878 937
a 878 938
a 878 939
a 878 940
a 878 941
a 878 942
a 878 943
a 878 944
a 878 945
a 878 946
a 878 947
a 878 948
a 878 949
a 878 950
a 878 951
a 878 952
a 878 953
a 1004 990
a 1004 1000
a 1004 1002
a 1004 878
a 1004 1005
a 1004 1006
a 1004 1007
a 1004 1008
a 1004 1009
a 1004 879
a 1004 1010
a 1004 1011
a 1004 880
a 1004 1012
a 1004 1013
a 1004 1014
a 1004 1015
a 1004 1016
a 1004 1017
a 1004 1018
a 1004 1019
a 1005 990
a 1005 1000
a 1005 1002
a 1005 878
a 1005 1004
a 1005 1006
a 1005 1007
a 1005 1008
a 1005 1009
a 1005 879
a 1005 1010
a 1005 1011
a 1005 880
a 1005 1012
a 1005 1013
a 1005 1014
a 1005 1015
a 1005 1016
a 1005 1017
a 1005 1018
a 1005 1019
a 1006 990
a 1006 1000
a 1006 1002
a 1006 878
a 1006 1004
a 1006 1005
a 1006 1007
a 1006 1008
a 1006 1009
a 1006 879
a 1006 1010
a 1006 1011
a 1006 880
a 1006 1012
a 1006 1013
a 1006 1014
a 1006 1015
a 1006 1016
a 1006 1017
a 1006 1018
a 1006 1019
a 1007 990
a 1007 1000
a 1007 1002
a 1007 878
a 1007 1004
a 1007 1005
a 1007 1006
a 1007 1008
a 1007 1009
a 1007 879
a 1007 1010
a 1007 1011
a 1007 880
a 1007 1012
a 1007 1013
a 1007 1014
a 1007 1015
a 1007 1016
a 1007 1017
a 1007 1018
a 1007 1019
a 1008 990
a 1008 1000
a 1008 1002
a 1008 878
a 1008 1004
a 1008 1005
a 1008 1006
a 1008 1007
a 1008 1009
a 1008 879
a 1008 1010
a 1008 1011
a 1008 880
a 1008 1012
a 1008 1013
a 1008 1014
a 1008 1015
a 1008 1016
a 1008 1017
a 1008 1018
a 1008 1019
a 1009 990
a 1009 1000
a 1009 1002
a 1009 878
a 1009 1004
a 1009 1005
a 1009 1006
a 1009 1007
a 1009 1008
a 1009 879
a 1009 1010
a 1009 1011
a 1009 880
a 1009 1012
a 1009 1013
a 1009 1014
a 1009 1015
a 1009 1016
a 1009 1017
a 1009 1018
a 1009 1019
a 879 990
a 879 1000
a 879 1002
a 879 875
a 879 876
a 879 877
a 879 878
a 879 1004
a 879 1005
a 879 1006
a 879 1007
a 879 1008
a 879 1009
a 879 1010
a 879 1011
a 879 880
a 879 1012
a 879 1013
a 879 1014
a 879 1015
a 879 1016
a 879 1017
a 879 1018
a 879 1019
a 879 881
a 879 882
a 879 883
a 879 884
a 879 885
a 879 886
a 879 887
a 879 888
a 879 889
a 879 890
a 879 891
a 879 892
a 879 893
a 879 894
a 879 895
a 879 896
a 879 897
a 879 898
a 879 899
a 879 900
a 879 901
a 879 902
a 879 903
a 879 904
a 879 905
a 879 906
a 879 907
a 879 908
a 879 909
a 879 910
a 879 911
a 879 912
a 879 913
a 879 914
a 879 915
a 879 916
a 879 917
a 879 918
a 879 919
a 879 920
a 879 921
a 879 922
a 879 923
a 879 924
a 879 925
a 879 926
a 879 927
a 879 928
a 879 929
a 879 930
a 879 861
a 879 931
a 879 932
a 879 933
a 879 934
a 879 935
a 879 936
a 879 937
a 879 938
a 879 939
a 879 940
a 879 941
a 879 942
a 879 943
a 879 944
a 879 945
a 879 946
a 879 947
a 879 948
a 879 949
a 879 950
a 879 951
a 879 952
a 879 953
a 1010 990
a 1010 1000
a 1010 1002
a 1010 878
a 1010 1004
a 1010 1005
a 1010 1006
a 1010 1007
a 1010 1008
a 1010 1009
a 1010 879
a 1010 1011
a 1010 880
a 1010 1012
a 1010 1013
a 1010 1014
a 1010 1015
a 1010 1016
a 1010 1017
a 1010 1018
a 1010 1019
a 1011 990
a 1011 1000
a 1011 1002
a 1011 878
a 1011 1004
a 1011 1005
a 1011 1006
a 1011 1007
a 1011 1008
a 1011 1009
a 1011 879
a 1011 1010
a 1011 880
a 1011 1012
a 1011 1013
a 1011 1014
a 1011 1015
a 1011 1016
a 1011 1017
a 1011 1018
a 1011 1019
a 880 990
a 880 1000
a 880 1002
a 880 875
a 880 876
a 880 877
a 880 878
a 880 1004
a 880 1005
a 880 1006
a 880 1007
a 880 1008
a 880 1009
a 880 879
a 880 1010
a 880 1011
a 880 1012
a 880 1013
a 880 1014
a 880 1015
a 880 1016
a 880 1017
a 880 1018
a 880 1019
a 880 881
a 880 882
a 880 883
a 880 884
a 880 885
a 880 886
a 880 887
a 880 888
a 880 889
a 880 890
a 880 891
a 880 892
a 880 893
a 880 894
a 880 895
a 880 896
a 880 897
a 880 898
a 880 899
a 880 900
a 880 901
a 880 902
a 880 903
a 880 904
a 880 905
a 880 906
a 880 907
a 880 908
a 880 909
a 880 910
a 880 911
a 880 912
a 880 913
a 880 914
a 880 915
a 880 916
a 880 917
a 880 918
a 880 919
a 880 920
a 880 921
a 880 922
a 880 923
a 880 924
a 880 925
a 880 926
a 880 927
a 880 928
a 880 929
a 880 930
a 880 861
a 880 931
a 880 932
a 880 933
a 880 934
a 880 935
a 880 936
a 880 937
a 880 938
a 880 939
a 880 940
a 880 941
a 880 942
a 880 943
a 880 944
a 880 945
a 880 946
a 880 947
a 880 948
a 880 949
a 880 950
a 880 951
a 880 952
a 880 953
a 1012 990
a 1012 1000
a 1012 1002
a 1012 878
a 1012 1004
a 1012 1005
a 1012 1006
a 1012 1007
a 1012 1008
a 1012 1009
a 1012 879
a 1012 1010
a 1012 1011
a 1012 880
a 1012 1013
a 1012 1014
a 1012 1015
a 1012 1016
a 1012 1017
a 1012 1018
a 1012 1019
a 1013 990
a 1013 1000
a 1013 1002
a 1013 878
a 1013 1004
a 1013 1005
a 1013 1006
a 1013 1007
a 1013 1008
a 1013 1009
a 1013 879
a 1013 1010
a 1013 1011
a 1013 880
a 1013 1012
a 1013 1014
a 1013 1015
a 1013 1016
a 1013 1017
a 1013 1018
a 1013 1019
a 1014 990
a 1014 1000
a 1014 1002
a 1014 878
a 1014 1004
a 1014 1005
a 1014 1006
a 1014 1007
a 1014 1008
a 1014 1009
a 1014 879
a 1014 1010
a 1014 1011
a 1014 880
a 1014 1012
a 1014 1013
a 1014 1015
a 1014 1016
a 1014 1017
a 1014 1018
a 1014 1019
a 1015 990
a 1015 1000
a 1015 1002
a 1015 878
a 1015 1004
a 1015 1005
a 1015 1006
a 1015 1007
a 1015 1008
a 1015 1009
a 1015 879
a 1015 1010
a 1015 1011
a 1015 880
a 1015 1012
a 1015 1013
a 1015 1014
a 1015 1016
a 1015 1017
a 1015 1018
a 1015 1019
a 1016 990
a 1016 1000
a 1016 1002
a 1016 878
a 1016 1004
a 1016 1005
a 1016 1006
a 1016 1007
a 1016 1008
a 1016 1009
a 1016 879
a 1016 1010
a 1016 1011
a 1016 880
a 1016 1012
a 1016 1013
a 1016 1014
a 1016 1015
a 1016 1017
a 1016 1018
a 1016 1019
a 1017 990
a 1017 1000
a 1017 1002
a 1017 878
a 1017 1004
a 1017 1005
a 1017 1006
a 1017 1007
a 1017 1008
a 1017 1009
a 1017 879
a 1017 1010
a 1017 1011
a 1017 880
a 1017 1012
a 1017 1013
a 1017 1014
a 1017 1015
a 1017 1016
a 1017 1018
a 1017 1019
a 1018 990
a 1018 1000
a 1018 1002
a 1018 878
a 1018 1004
a 1018 1005
a 1018 1006
a 1018 1007
a 1018 1008
a 1018 1009
a 1018 879
a 1018 1010
a 1018 1011
a 1018 880
a 1018 1012
a 1018 1013
a 1018 1014
a 1018 1015
a 1018 1016
a 1018 1017
a 1018 1019
a 1019 990
a 1019 1000
a 1019 1002
a 1019 878
a 1019 1004
a 1019 1005
a 1019 1006
a 1019 1007
a 1019 1008
a 1019 1009
a 1019 879
a 1019 1010
a 1019 1011
a 1019 880
a 1019 1012
a 1019 1013
a 1019 1014
a 1019 1015
a 1019 1016
a 1019 1017
a 1019 1018
a 1020 991
a 1020 985
a 985 991
a 985 853
a 985 1020
a 1021 992
a 1021 1024
a 1021 1025
a 1021 998
a 1021 1026
a 1021 1027
a 1022 993
a 1022 986
a 986 993
a 986 854
a 986 1022
a 1023 995
a 1023 987
a 987 995
a 987 855
a 987 1023
a 987 988
a 1024 1025
a 1024 998
a 1024 1026
a 1024 1021
a 1024 1027
a 1024 1029
a 1025 1024
a 1025 998
a 1025 1026
a 1025 1021
a 1025 1027
a 1025 875
a 1025 1030
a 1025 1031
a 1025 876
a 1025 1032
a 1025 1033
a 1025 877
a 1025 1034
a 1025 1035
a 1025 1036
a 1025 1037
a 1026 1024
a 1026 1025
a 1026 998
a 1026 1021
a 1026 1027
a 1026 875
a 1026 1030
a 1026 1031
a 1026 876
a 1026 1032
a 1026 1033
a 1026 877
a 1026 1034
a 1026 1035
a 1026 1036
a 1026 1037
a 1027 1024
a 1027 1025
a 1027 998
a 1027 1026
a 1027 1021
a 1027 875
a 1027 1030
a 1027 1031
a 1027 876
a 1027 1032
a 1027 1033
a 1027 877
a 1027 1034
a 1027 1035
a 1027 1036
a 1027 1037
a 1029 1024
a 1029 1038
a 1029 981
a 875 1025
a 875 1026
a 875 1027
a 875 1030
a 875 1031
a 875 876
a 875 1032
a 875 1033
a 875 877
a 875 1034
a 875 1035
a 875 1036
a 875 1037
a 875 878
a 875 879
a 875 880
a 875 881
a 875 882
a 875 883
a 875 884
a 875 885
a 875 886
a 875 887
a 875 888
a 875 889
a 875 890
a 875 891
a 875 892
a 875 893
a 875 894
a 875 895
a 875 896
a 875 897
a 875 898
a 875 899
a 875 900
a 875 901
a 875 902
a 875 903
a 875 904
a 875 905
a 875 906
a 875 907
a 875 908
a 875 909
a 875 910
a 875 911
a 875 912
a 875 913
a 875 914
a 875 915
a 875 916
a 875 917
a 875 918
a 875 919
a 875 920
a 875 921
a 875 922
a 875 923
a 875 924
a 875 925
a 875 926
a 875 927
a 875 928
a 875 929
a 875 930
a 875 861
a 875 931
a 875 932
a 875 933
a 875 934
a 875 935
a 875 936
a 875 937
a 875 938
a 875 939
a 875 940
a 875 941
a 875 942
a 875 943
a 875 944
a 875 945
a 875 946
a 875 947
a 875 948
a 875 949
a 875 950
a 875 951
a 875 952
a 875 953
a 1030 1025
a 1030 1026
a 1030 1027
a 1030 875
a 1030 1031
a 1030 876
a 1030 1032
a 1030 1033
a 1030 877
a 1030 1034
a 1030 1035
a 1030 1036
a 1030 1037
a 1031 1025
a 1031 1026
a 1031 1027
a 1031 875
a 1031 1030
a 1031 876
a 1031 1032
a 1031 1033
a 1031 877
a 1031 1034
a 1031 1035
a 1031 1036
a 1031 1037
a 876 1025
a 876 1026
a 876 1027
a 876 875
a 876 1030
a 876 1031
a 876 1032
a 876 1033
a 876 877
a 876 1034
a 876 1035
a 876 1036
a 876 1037
a 876 878
a 876 879
a 876 880
a 876 881
a 876 882
a 876 883
a 876 884
a 876 885
a 876 886
a 876 887
a 876 888
a 876 889
a 876 890
a 876 891
a 876 892
a 876 893
a 876 894
a 876 895
a 876 896
a 876 897
a 876 898
a 876 899
a 876 900
a 876 901
a 876 902
a 876 903
a 876 904
a 876 905
a 876 906
a 876 907
a 876 908
a 876 909
a 876 910
a 876 911
a 876 912
a 876 913
a 876 914
a 876 915
a 876 916
a 876 917
a 876 918
a 876 919
a 876 920
a 876 921
a 876 922
a 876 923
a 876 924
a 876 925
a 876 926
a 876 927
a 876 928
a 876 929
a 876 930
a 876 861
a 876 931
a 876 932
a 876 933
a 876 934
a 876 935
a 876 936
a 876 937
a 876 938
a 876 939
a 876 940
a 876 941
a 876 942
a 876 943
a 876 944
a 876 945
a 876 946
a 876 947
a 876 948
a 876 949
a 876 950
a 876 951
a 876 952
a 876 953
a 1032 1025
a 1032 1026
a 1032 1027
a 1032 875
a 1032 1030
a 1032 1031
a 1032 876
a 1032 1033
a 1032 877
a 1032 1034
a 1032 1035
a 1032 1036
a 1032 1037
a 1033 1025
a 1033 1026
a 1033 1027
a 1033 875
a 1033 1030
a 1033 1031
a 1033 876
a 1033 1032
a 1033 877
a 1033 1034
a 1033 1035
a 1033 1036
a 1033 1037
a 877 1025
a 877 1026
a 877 1027
a 877 875
a 877 1030
a 877 1031
a 877 876
a 877 1032
a 877 1033
a 877 1034
a 877 1035
a 877 1036
a 877 1037
a 877 878
a 877 879
a 877 880
a 877 881
a 877 882
a 877 883
a 877 884
a 877 885
a 877 886
a 877 887
a 877 888
a 877 889
a 877 890
a 877 891
a 877 892
a 877 893
a 877 894
a 877 895
a 877 896
a 877 897
a 877 898
a 877 899
a 877 900
a 877 901
a 877 902
a 877 903
a 877 904
a 877 905
a 877 906
a 877 907
a 877 908
a 877 909
a 877 910
a 877 911
a 877 912
a 877 913
a 877 914
a 877 915
a 877 916
a 877 917
a 877 918
a 877 919
a 877 920
a 877 921
a 877 922
a 877 923
a 877 924
a 877 925
a 877 926
a 877 927
a 877 928
a 877 929
a 877 930
a 877 861
a 877 931
a 877 932
a 877 933
a 877 934
a 877 935
a 877 936
a 877 937
a 877 938
a 877 939
a 877 940
a 877 941
a 877 942
a 877 943
a 877 944
a 877 945
a 877 946
a 877 947
a 877 948
a 877 949
a 877 950
a 877 951
a 877 952
a 877 953
a 1034 1025
a 1034 1026
a 1034 1027
a 1034 875
a 1034 1030
a 1034 1031
a 1034 876
a 1034 1032
a 1034 1033
a 1034 877
a 1034 1035
a 1034 1036
a 1034 1037
a 1035 1025
a 1035 1026
a 1035 1027
a 1035 875
a 1035 1030
a 1035 1031
a 1035 876
a 1035 1032
a 1035 1033
a 1035 877
a 1035 1034
a 1035 1036
a 1035 1037
a 1036 1025
a 1036 1026
a 1036 1027
a 1036 875
a 1036 1030
a 1036 1031
a 1036 876
a 1036 1032
a 1036 1033
a 1036 877
a 1036 1034
a 1036 1035
a 1036 1037
a 1037 1025
a 1037 1026
a 1037 1027
a 1037 875
a 1037 1030
a 1037 1031
a 1037 876
a 1037 1032
a 1037 1033
a 1037 877
a 1037 1034
a 1037 1035
a 1037 1036
a 1028 999
a 1028 1039
a 1028 982
a 981 850
a 981 1038
a 981 1029
a 1038 981
a 1038 1029
a 982 851
a 982 1039
a 982 1028
a 1039 982
a 1039 1028
a 984 852
a 984 983
a 988 855
a 988 987
a 881 875
a 881 876
a 881 877
a 881 878
a 881 879
a 881 880
a 881 882
a 881 883
a 881 884
a 881 885
a 881 886
a 881 887
a 881 888
a 881 889
a 881 890
a 881 891
a 881 892
a 881 893
a 881 894
a 881 895
a 881 896
a 881 897
a 881 898
a 881 899
a 881 900
a 881 901
a 881 902
a 881 903
a 881 904
a 881 905
a 881 906
a 881 907
a 881 908
a 881 909
a 881 910
a 881 911
a 881 912
a 881 913
a 881 914
a 881 915
a 881 916
a 881 917
a 881 918
a 881 919
a 881 920
a 881 921
a 881 922
a 881 923
a 881 924
a 881 925
a 881 926
a 881 927
a 881 928
a 881 929
a 881 930
a 881 861
a 881 931
a 881 932
a 881 933
a 881 934
a 881 935
a 881 936
a 881 937
a 881 938
a 881 939
a 881 940
a 881 941
a 881 942
a 881 943
a 881 944
a 881 945
a 881 946
a 881 947
a 881 948
a 881 949
a 881 950
a 881 951
a 881 952
a 881 953
a 881 1040
a 881 1041
a 881 1042
a 882 875
a 882 876
a 882 877
a 882 878
a 882 879
a 882 880
a 882 881
a 882 883
a 882 884
a 882 885
a 882 886
a 882 887
a 882 888
a 882 889
a 882 890
a 882 891
a 882 892
a 882 893
a 882 894
a 882 895
a 882 896
a 882 897
a 882 898
a 882 899
a 882 900
a 882 901
a 882 902
a 882 903
a 882 904
a 882 905
a 882 906
a 882 907
a 882 908
a 882 909
a 882 910
a 882 911
a 882 912
a 882 913
a 882 914
a 882 915
a 882 916
a 882 917
a 882 918
a 882 919
a 882 920
a 882 921
a 882 922
a 882 923
a 882 924
a 882 925
a 882 926
a 882 927
a 882 928
a 882 929
a 882 930
a 882 861
a 882 931
a 882 932
a 882 933
a 882 934
a 882 935
a 882 936
a 882 937
a 882 938
a 882 939
a 882 940
a 882 941
a 882 942
a 882 943
a 882 944
a 882 945
a 882 946
a 882 947
a 882 948
a 882 949
a 882 950
a 882 951
a 882 952
a 882 953
a 883 875
a 883 876
a 883 877
a 883 878
a 883 879
a 883 880
a 883 881
a 883 882
a 883 884
a 883 885
a 883 886
a 883 887
a 883 888
a 883 889
a 883 890
a 883 891
a 883 892
a 883 893
a 883 894
a 883 895
a 883 896
a 883 897
a 883 898
a 883 899
a 883 900
a 883 901
a 883 902
a 883 903
a 883 904
a 883 905
a 883 906
a 883 907
a 883 908
a 883 909
a 883 910
a 883 911
a 883 912
a 883 913
a 883 914
a 883 915
a 883 916
a 883 917
a 883 918
a 883 919
a 883 920
a 883 921
a 883 922
a 883 923
a 883 924
a 883 925
a 883 926
a 883 927
a 883 928
a 883 929
a 883 930
a 883 861
a 883 931
a 883 932
a 883 933
a 883 934
a 883 935
a 883 936
a 883 937
a 883 938
a 883 939
a 883 940
a 883 941
a 883 942
a 883 943
a 883 944
a 883 945
a 883 946
a 883 947
a 883 948
a 883 949
a 883 950
a 883 951
a 883 952
a 883 953
a 884 875
a 884 876
a 884 877
a 884 878
a 884 879
a 884 880
a 884 881
a 884 882
a 884 883
a 884 885
a 884 886
a 884 887
a 884 888
a 884 889
a 884 890
a 884 891
a 884 892
a 884 893
a 884 894
a 884 895
a 884 896
a 884 897
a 884 898
a 884 899
a 884 900
a 884 901
a 884 902
a 884 903
a 884 904
a 884 905
a 884 906
a 884 907
a 884 908
a 884 909
a 884 910
a 884 911
a 884 912
a 884 913
a 884 914
a 884 915
a 884 916
a 884 917
a 884 918
a 884 919
a 884 920
a 884 921
a 884 922
a 884 923
a 884 924
a 884 925
a 884 926
a 884 927
a 884 928
a 884 929
a 884 930
a 884 861
a 884 931
a 884 932
a 884 933
a 884 934
a 884 935
a 884 936
a 884 937
a 884 938
a 884 939
a 884 940
a 884 941
a 884 942
a 884 943
a 884 944
a 884 945
a 884 946
a 884 947
a 884 948
a 884 949
a 884 950
a 884 951
a 884 952
a 884 953
a 884 1040
a 884 1043
a 884 1044
a 885 875
a 885 876
a 885 877
a 885 878
a 885 879
a 885 880
a 885 881
a 885 882
a 885 883
a 885 884
a 885 886
a 885 887
a 885 888
a 885 889
a 885 890
a 885 891
a 885 892
a 885 893
a 885 894
a 885 895
a 885 896
a 885 897
a 885 898
a 885 899
a 885 900
a 885 901
a 885 902
a 885 903
a 885 904
a 885 905
a 885 906
a 885 907
a 885 908
a 885 909
a 885 910
a 885 911
a 885 912
a 885 913
a 885 914
a 885 915
a 885 916
a 885 917
a 885 918
a 885 919
a 885 920
a 885 921
a 885 922
a 885 923
a 885 924
a 885 925
a 885 926
a 885 927
a 885 928
a 885 929
a 885 930
a 885 861
a 885 931
a 885 932
a 885 933
a 885 934
a 885 935
a 885 936
a 885 937
a 885 938
a 885 939
a 885 940
a 885 941
a 885 942
a 885 943
a 885 944
a 885 945
a 885 946
a 885 947
a 885 948
a 885 949
a 885 950
a 885 951
a 885 952
a 885 953
a 886 875
a 886 876
a 886 877
a 886 878
a 886 879
a 886 880
a 886 881
a 886 882
a 886 883
a 886 884
a 886 885
a 886 887
a 886 888
a 886 889
a 886 890
a 886 891
a 886 892
a 886 893
a 886 894
a 886 895
a 886 896
a 886 897
a 886 898
a 886 899
a 886 900
a 886 901
a 886 902
a 886 903
a 886 904
a 886 905
a 886 906
a 886 907
a 886 908
a 886 909
a 886 910
a 886 911
a 886 912
a 886 913
a 886 914
a 886 915
a 886 916
a 886 917
a 886 918
a 886 919
a 886 920
a 886 921
a 886 922
a 886 923
a 886 924
a 886 925
a 886 926
a 886 927
a 886 928
a 886 929
a 886 930
a 886 861
a 886 931
a 886 932
a 886 933
a 886 934
a 886 935
a 886 936
a 886 937
a 886 938
a 886 939
a 886 940
a 886 941
a 886 942
a 886 943
a 886 944
a 886 945
a 886 946
a 886 947
a 886 948
a 886 949
a 886 950
a 886 951
a 886 952
a 886 953
a 887 875
a 887 876
a 887 877
a 887 878
a 887 879
a 887 880
a 887 881
a 887 882
a 887 883
a 887 884
a 887 885
a 887 886
a 887 888
a 887 889
a 887 890
a 887 891
a 887 892
a 887 893
a 887 894
a 887 895
a 887 896
a 887 897
a 887 898
a 887 899
a 887 900
a 887 901
a 887 902
a 887 903
a 887 904
a 887 905
a 887 906
a 887 907
a 887 908
a 887 909
a 887 910
a 887 911
a 887 912
a 887 913
a 887 914
a 887 915
a 887 916
a 887 917
a 887 918
a 887 919
a 887 920
a 887 921
a 887 922
a 887 923
a 887 924
a 887 925
a 887 926
a 887 927
a 887 928
a 887 929
a 887 930
a 887 861
a 887 931
a 887 932
a 887 933
a 887 934
a 887 935
a 887 936
a 887 937
a 887 938
a 887 939
a 887 940
a 887 941
a 887 942
a 887 943
a 887 944
a 887 945
a 887 946
a 887 947
a 887 948
a 887 949
a 887 950
a 887 951
a 887 952
a 887 953
a 888 875
a 888 876
a 888 877
a 888 878
a 888 879
a 888 880
a 888 881
a 888 882
a 888 883
a 888 884
a 888 885
a 888 886
a 888 887
a 888 889
a 888 890
a 888 891
a 888 892
a 888 893
a 888 894
a 888 895
a 888 896
a 888 897
a 888 898
a 888 899
a 888 900
a 888 901
a 888 902
a 888 903
a 888 904
a 888 905
a 888 906
a 888 907
a 888 908
a 888 909
a 888 910
a 888 911
a 888 912
a 888 913
a 888 914
a 888 915
a 888 916
a 888 917
a 888 918
a 888 919
a 888 920
a 888 921
a 888 922
a 888 923
a 888 924
a 888 925
a 888 926
a 888 927
a 888 928
a 888 929
a 888 930
a 888 861
a 888 931
a 888 932
a 888 933
a 888 934
a 888 935
a 888 936
a 888 937
a 888 938
a 888 939
a 888 940
a 888 941
a 888 942
a 888 943
a 888 944
a 888 945
a 888 946
a 888 947
a 888 948
a 888 949
a 888 950
a 888 951
a 888 952
a 888 953
a 889 875
a 889 876
a 889 877
a 889 878
a 889 879
a 889 880
a 889 881
a 889 882
a 889 883
a 889 884
a 889 885
a 889 886
a 889 887
a 889 888
a 889 890
a 889 891
a 889 892
a 889 893
a 889 894
a 889 895
a 889 896
a 889 897
a 889 898
a 889 899
a 889 900
a 889 901
a 889 902
a 889 903
a 889 904
a 889 905
a 889 906
a 889 907
a 889 908
a 889 909
a 889 910
a 889 911
a 889 912
a 889 913
a 889 914
a 889 915
a 889 916
a 889 917
a 889 918
a 889 919
a 889 920
a 889 921
a 889 922
a 889 923
a 889 924
a 889 925
a 889 926
a 889 927
a 889 928
a 889 929
a 889 930
a 889 861
a 889 931
a 889 932
a 889 933
a 889 934
a 889 935
a 889 936
a 889 937
a 889 938
a 889 939
a 889 940
a 889 941
a 889 942
a 889 943
a 889 944
a 889 945
a 889 946
a 889 947
a 889 948
a 889 949
a 889 950
a 889 951
a 889 952
a 889 953
a 890 875
a 890 876
a 890 877
a 890 878
a 890 879
a 890 880
a 890 881
a 890 882
a 890 883
a 890 884
a 890 885
a 890 886
a 890 887
a 890 888
a 890 889
a 890 891
a 890 892
a 890 893
a 890 894
a 890 895
a 890 896
a 890 897
a 890 898
a 890 899
a 890 900
a 890 901
a 890 902
a 890 903
a 890 904
a 890 905
a 890 906
a 890 907
a 890 908
a 890 909
a 890 910
a 890 911
a 890 912
a 890 913
a 890 914
a 890 915
a 890 916
a 890 917
a 890 918
a 890 919
a 890 920
a 890 921
a 890 922
a 890 923
a 890 924
a 890 925
a 890 926
a 890 927
a 890 928
a 890 929
a 890 930
a 890 861
a 890 931
a 890 932
a 890 933
a 890 934
a 890 935
a 890 936
a 890 937
a 890 938
a 890 939
a 890 940
a 890 941
a 890 942
a 890 943
a 890 944
a 890 945
a 890 946
a 890 947
a 890 948
a 890 949
a 890 950
a 890 951
a 890 952
a 890 953
a 891 875
a 891 876
a 891 877
a 891 878
a 891 879
a 891 880
a 891 881
a 891 882
a 891 883
a 891 884
a 891 885
a 891 886
a 891 887
a 891 888
a 891 889
a 891 890
a 891 892
a 891 893
a 891 894
a 891 895
a 891 896
a 891 897
a 891 898
a 891 899
a 891 900
a 891 901
a 891 902
a 891 903
a 891 904
a 891 905
a 891 906
a 891 907
a 891 908
a 891 909
a 891 910
a 891 911
a 891 912
a 891 913
a 891 914
a 891 915
a 891 916
a 891 917
a 891 918
a 891 919
a 891 920
a 891 921
a 891 922
a 891 923
a 891 924
a 891 925
a 891 926
a 891 927
a 891 928
a 891 929
a 891 930
a 891 861
a 891 931
a 891 932
a 891 933
a 891 934
a 891 935
a 891 936
a 891 937
a 891 938
a 891 939
a 891 940
a 891 941
a 891 942
a 891 943
a 891 944
a 891 945
a 891 946
a 891 947
a 891 948
a 891 949
a 891 950
a 891 951
a 891 952
a 891 953
a 891 1045
a 891 1046
a 891 1047
a 892 875
a 892 876
a 892 877
a 892 878
a 892 879
a 892 880
a 892 881
a 892 882
a 892 883
a 892 884
a 892 885
a 892 886
a 892 887
a 892 888
a 892 889
a 892 890
a 892 891
a 892 893
a 892 894
a 892 895
a 892 896
a 892 897
a 892 898
a 892 899
a 892 900
a 892 901
a 892 902
a 892 903
a 892 904
a 892 905
a 892 906
a 892 907
a 892 908
a 892 909
a 892 910
a 892 911
a 892 912
a 892 913
a 892 914
a 892 915
a 892 916
a 892 917
a 892 918
a 892 919
a 892 920
a 892 921
a 892 922
a 892 923
a 892 924
a 892 925
a 892 926
a 892 927
a 892 928
a 892 929
a 892 930
a 892 861
a 892 931
a 892 932
a 892 933
a 892 934
a 892 935
a 892 936
a 892 937
a 892 938
a 892 939
a 892 940
a 892 941
a 892 942
a 892 943
a 892 944
a 892 945
a 892 946
a 892 947
a 892 948
a 892 949
a 892 950
a 892 951
a 892 952
a 892 953
a 893 875
a 893 876
a 893 877
a 893 878
a 893 879
a 893 880
a 893 881
a 893 882
a 893 883
a 893 884
a 893 885
a 893 886
a 893 887
a 893 888
a 893 889
a 893 890
a 893 891
a 893 892
a 893 894
a 893 895
a 893 896
a 893 897
a 893 898
a 893 899
a 893 900
a 893 901
a 893 902
a 893 903
a 893 904
a 893 905
a 893 906
a 893 907
a 893 908
a 893 909
a 893 910
a 893 911
a 893 912
a 893 913
a 893 914
a 893 915
a 893 916
a 893 917
a 893 918
a 893 919
a 893 920
a 893 921
a 893 922
a 893 923
a 893 924
a 893 925
a 893 926
a 893 927
a 893 928
a 893 929
a 893 930
a 893 861
a 893 931
a 893 932
a 893 933
a 893 934
a 893 935
a 893 936
a 893 937
a 893 938
a 893 939
a 893 940
a 893 941
a 893 942
a 893 943
a 893 944
a 893 945
a 893 946
a 893 947
a 893 948
a 893 949
a 893 950
a 893 951
a 893 952
a 893 953
a 894 875
a 894 876
a 894 877
a 894 878
a 894 879
a 894 880
a 894 881
a 894 882
a 894 883
a 894 884
a 894 885
a 894 886
a 894 887
a 894 888
a 894 889
a 894 890
a 894 891
a 894 892
a 894 893
a 894 895
a 894 896
a 894 897
a 894 898
a 894 899
a 894 900
a 894 901
a 894 902
a 894 903
a 894 904
a 894 905
a 894 906
a 894 907
a 894 908
a 894 909
a 894 910
a 894 911
a 894 912
a 894 913
a 894 914
a 894 915
a 894 916
a 894 917
a 894 918
a 894 919
a 894 920
a 894 921
a 894 922
a 894 923
a 894 924
a 894 925
a 894 926
a 894 927
a 894 928
a 894 929
a 894 930
a 894 861
a 894 931
a 894 932
a 894 933
a 894 934
a 894 935
a 894 936
a 894 937
a 894 938
a 894 939
a 894 940
a 894 941
a 894 942
a 894 943
a 894 944
a 894 945
a 894 946
a 894 947
a 894 948
a 894 949
a 894 950
a 894 951
a 894 952
a 894 953
a 894 1048
a 894 1049
a 894 1050
a 895 875
a 895 876
a 895 877
a 895 878
a 895 879
a 895 880
a 895 881
a 895 882
a 895 883
a 895 884
a 895 885
a 895 886
a 895 887
a 895 888
a 895 889
a 895 890
a 895 891
a 895 892
a 895 893
a 895 894
a 895 896
a 895 897
a 895 898
a 895 899
a 895 900
a 895 901
a 895 902
a 895 903
a 895 904
a 895 905
a 895 906
a 895 907
a 895 908
a 895 909
a 895 910
a 895 911
a 895 912
a 895 913
a 895 914
a 895 915
a 895 916
a 895 917
a 895 918
a 895 919
a 895 920
a 895 921
a 895 922
a 895 923
a 895 924
a 895 925
a 895 926
a 895 927
a 895 928
a 895 929
a 895 930
a 895 861
a 895 931
a 895 932
a 895 933
a 895 934
a 895 935
a 895 936
a 895 937
a 895 938
a 895 939
a 895 940
a 895 941
a 895 942
a 895 943
a 895 944
a 895 945
a 895 946
a 895 947
a 895 948
a 895 949
a 895 950
a 895 951
a 895 952
a 895 953
a 896 875
a 896 876
a 896 877
a 896 878
a 896 879
a 896 880
a 896 881
a 896 882
a 896 883
a 896 884
a 896 885
a 896 886
a 896 887
a 896 888
a 896 889
a 896 890
a 896 891
a 896 892
a 896 893
a 896 894
a 896 895
a 896 897
a 896 898
a 896 899
a 896 900
a 896 901
a 896 902
a 896 903
a 896 904
a 896 905
a 896 906
a 896 907
a 896 908
a 896 909
a 896 910
a 896 911
a 896 912
a 896 913
a 896 914
a 896 915
a 896 916
a 896 917
a 896 918
a 896 919
a 896 920
a 896 921
a 896 922
a 896 923
a 896 924
a 896 925
a 896 926
a 896 927
a 896 928
a 896 929
a 896 930
a 896 861
a 896 931
a 896 932
a 896 933
a 896 934
a 896 935
a 896 936
a 896 937
a 896 938
a 896 939
a 896 940
a 896 941
a 896 942
a 896 943
a 896 944
a 896 945
a 896 946
a 896 947
a 896 948
a 896 949
a 896 950
a 896 951
a 896 952
a 896 953
a 897 875
a 897 876
a 897 877
a 897 878
a 897 879
a 897 880
a 897 881
a 897 882
a 897 883
a 897 884
a 897 885
a 897 886
a 897 887
a 897 888
a 897 889
a 897 890
a 897 891
a 897 892
a 897 893
a 897 894
a 897 895
a 897 896
a 897 898
a 897 899
a 897 900
a 897 901
a 897 902
a 897 903
a 897 904
a 897 905
a 897 906
a 897 907
a 897 908
a 897 909
a 897 910
a 897 911
a 897 912
a 897 913
a 897 914
a 897 915
a 897 916
a 897 917
a 897 918
a 897 919
a 897 920
a 897 921
a 897 922
a 897 923
a 897 924
a 897 925
a 897 926
a 897 927
a 897 928
a 897 929
a 897 930
a 897 861
a 897 931
a 897 932
a 897 933
a 897 934
a 897 935
a 897 936
a 897 937
a 897 938
a 897 939
a 897 940
a 897 941
a 897 942
a 897 943
a 897 944
a 897 945
a 897 946
a 897 947
a 897 948
a 897 949
a 897 950
a 897 951
a 897 952
a 897 953
a 897 1051
a 897 1052
a 897 1053
a 898 875
a 898 876
a 898 877
a 898 878
a 898 879
a 898 880
a 898 881
a 898 882
a 898 883
a 898 884
a 898 885
a 898 886
a 898 887
a 898 888
a 898 889
a 898 890
a 898 891
a 898 892
a 898 893
a 898 894
a 898 895
a 898 896
a 898 897
a 898 899
a 898 900
a 898 901
a 898 902
a 898 903
a 898 904
a 898 905
a 898 906
a 898 907
a 898 908
a 898 909
a 898 910
a 898 911
a 898 912
a 898 913
a 898 914
a 898 915
a 898 916
a 898 917
a 898 918
a 898 919
a 898 920
a 898 921
a 898 922
a 898 923
a 898 924
a 898 925
a 898 926
a 898 927
a 898 928
a 898 929
a 898 930
a 898 861
a 898 931
a 898 932
a 898 933
a 898 934
a 898 935
a 898 936
a 898 937
a 898 938
a 898 939
a 898 940
a 898 941
a 898 942
a 898 943
a 898 944
a 898 945
a 898 946
a 898 947
a 898 948
a 898 949
a 898 950
a 898 951
a 898 952
a 898 953
a 899 875
a 899 876
a 899 877
a 899 878
a 899 879
a 899 880
a 899 881
a 899 882
a 899 883
a 899 884
a 899 885
a 899 886
a 899 887
a 899 888
a 899 889
a 899 890
a 899 891
a 899 892
a 899 893
a 899 894
a 899 895
a 899 896
a 899 897
a 899 898
a 899 900
a 899 901
a 899 902
a 899 903
a 899 904
a 899 905
a 899 906
a 899 907
a 899 908
a 899 909
a 899 910
a 899 911
a 899 912
a 899 913
a 899 914
a 899 915
a 899 916
a 899 917
a 899 918
a 899 919
a 899 920
a 899 921
a 899 922
a 899 923
a 899 924
a 899 925
a 899 926
a 899 927
a 899 928
a 899 929
a 899 930
a 899 861
a 899 931
a 899 932
a 899 933
a 899 934
a 899 935
a 899 936
a 899 937
a 899 938
a 899 939
a 899 940
a 899 941
a 899 942
a 899 943
a 899 944
a 899 945
a 899 946
a 899 947
a 899 948
a 899 949
a 899 950
a 899 951
a 899 952
a 899 953
a 900 875
a 900 876
a 900 877
a 900 878
a 900 879
a 900 880
a 900 881
a 900 882
a 900 883
a 900 884
a 900 885
a 900 886
a 900 887
a 900 888
a 900 889
a 900 890
a 900 891
a 900 892
a 900 893
a 900 894
a 900 895
a 900 896
a 900 897
a 900 898
a 900 899
a 900 901
a 900 902
a 900 903
a 900 904
a 900 905
a 900 906
a 900 907
a 900 908
a 900 909
a 900 910
a 900 911
a 900 912
a 900 913
a 900 914
a 900 915
a 900 916
a 900 917
a 900 918
a 900 919
a 900 920
a 900 921
a 900 922
a 900 923
a 900 924
a 900 925
a 900 926
a 900 927
a 900 928
a 900 929
a 900 930
a 900 861
a 900 931
a 900 932
a 900 933
a 900 934
a 900 935
a 900 936
a 900 937
a 900 938
a 900 939
a 900 940
a 900 941
a 900 942
a 900 943
a 900 944
a 900 945
a 900 946
a 900 947
a 900 948
a 900 949
a 900 950
a 900 951
a 900 952
a 900 953
a 900 1054
a 900 1055
a 900 1056
a 900 1057
a 900 1058
a 901 875
a 901 876
a 901 877
a 901 878
a 901 879
a 901 880
a 901 881
a 901 882
a 901 883
a 901 884
a 901 885
a 901 886
a 901 887
a 901 888
a 901 889
a 901 890
a 901 891
a 901 892
a 901 893
a 901 894
a 901 895
a 901 896
a 901 897
a 901 898
a 901 899
a 901 900
a 901 902
a 901 903
a 901 904
a 901 905
a 901 906
a 901 907
a 901 908
a 901 909
a 901 910
a 901 911
a 901 912
a 901 913
a 901 914
a 901 915
a 901 916
a 901 917
a 901 918
a 901 919
a 901 920
a 901 921
a 901 922
a 901 923
a 901 924
a 901 925
a 901 926
a 901 927
a 901 928
a 901 929
a 901 930
a 901 861
a 901 931
a 901 932
a 901 933
a 901 934
a 901 935
a 901 936
a 901 937
a 901 938
a 901 939
a 901 940
a 901 941
a 901 942
a 901 943
a 901 944
a 901 945
a 901 946
a 901 947
a 901 948
a 901 949
a 901 950
a 901 951
a 901 952
a 901 953
a 902 875
a 902 876
a 902 877
a 902 878
a 902 879
a 902 880
a 902 881
a 902 882
a 902 883
a 902 884
a 902 885
a 902 886
a 902 887
a 902 888
a 902 889
a 902 890
a 902 891
a 902 892
a 902 893
a 902 894
a 902 895
a 902 896
a 902 897
a 902 898
a 902 899
a 902 900
a 902 901
a 902 903
a 902 904
a 902 905
a 902 906
a 902 907
a 902 908
a 902 909
a 902 910
a 902 911
a 902 912
a 902 913
a 902 914
a 902 915
a 902 916
a 902 917
a 902 918
a 902 919
a 902 920
a 902 921
a 902 922
a 902 923
a 902 924
a 902 925
a 902 926
a 902 927
a 902 928
a 902 929
a 902 930
a 902 861
a 902 931
a 902 932
a 902 933
a 902 934
a 902 935
a 902 936
a 902 937
a 902 938
a 902 939
a 902 940
a 902 941
a 902 942
a 902 943
a 902 944
a 902 945
a 902 946
a 902 947
a 902 948
a 902 949
a 902 950
a 902 951
a 902 952
a 902 953
a 903 875
a 903 876
a 903 877
a 903 878
a 903 879
a 903 880
a 903 881
a 903 882
a 903 883
a 903 884
a 903 885
a 903 886
a 903 887
a 903 888
a 903 889
a 903 890
a 903 891
a 903 892
a 903 893
a 903 894
a 903 895
a 903 896
a 903 897
a 903 898
a 903 899
a 903 900
a 903 901
a 903 902
a 903 904
a 903 905
a 903 906
a 903 907
a 903 908
a 903 909
a 903 910
a 903 911
a 903 912
a 903 913
a 903 914
a 903 915
a 903 916
a 903 917
a 903 918
a 903 919
a 903 920
a 903 921
a 903 922
a 903 923
a 903 924
a 903 925
a 903 926
a 903 927
a 903 928
a 903 929
a 903 930
a 903 861
a 903 931
a 903 932
a 903 933
a 903 934
a 903 935
a 903 936
a 903 937
a 903 938
a 903 939
a 903 940
a 903 941
a 903 942
a 903 943
a 903 944
a 903 945
a 903 946
a 903 947
a 903 948
a 903 949
a 903 950
a 903 951
a 903 952
a 903 953
a 904 875
a 904 876
a 904 877
a 904 878
a 904 879
a 904 880
a 904 881
a 904 882
a 904 883
a 904 884
a 904 885
a 904 886
a 904 887
a 904 888
a 904 889
a 904 890
a 904 891
a 904 892
a 904 893
a 904 894
a 904 895
a 904 896
a 904 897
a 904 898
a 904 899
a 904 900
a 904 901
a 904 902
a 904 903
a 904 905
a 904 906
a 904 1059
a 904 907
a 904 908
a 904 909
a 904 910
a 904 911
a 904 912
a 904 913
a 904 914
a 904 915
a 904 916
a 904 917
a 904 918
a 904 919
a 904 920
a 904 921
a 904 922
a 904 923
a 904 924
a 904 925
a 904 926
a 904 927
a 904 928
a 904 929
a 904 930
a 904 861
a 904 931
a 904 932
a 904 933
a 904 934
a 904 935
a 904 936
a 904 937
a 904 938
a 904 939
a 904 940
a 904 941
a 904 942
a 904 943
a 904 944
a 904 945
a 904 946
a 904 947
a 904 948
a 904 949
a 904 950
a 904 951
a 904 952
a 904 953
a 905 875
a 905 876
a 905 877
a 905 878
a 905 879
a 905 880
a 905 881
a 905 882
a 905 883
a 905 884
a 905 885
a 905 886
a 905 887
a 905 888
a 905 889
a 905 890
a 905 891
a 905 892
a 905 893
a 905 894
a 905 895
a 905 896
a 905 897
a 905 898
a 905 899
a 905 900
a 905 901
a 905 902
a 905 903
a 905 904
a 905 906
a 905 907
a 905 908
a 905 909
a 905 910
a 905 911
a 905 912
a 905 913
a 905 914
a 905 915
a 905 916
a 905 917
a 905 918
a 905 919
a 905 920
a 905 921
a 905 922
a 905 923
a 905 924
a 905 925
a 905 926
a 905 927
a 905 928
a 905 929
a 905 930
a 905 861
a 905 931
a 905 932
a 905 933
a 905 934
a 905 935
a 905 936
a 905 937
a 905 938
a 905 939
a 905 940
a 905 941
a 905 942
a 905 943
a 905 944
a 905 945
a 905 946
a 905 947
a 905 948
a 905 949
a 905 950
a 905 951
a 905 952
a 905 953
a 906 875
a 906 876
a 906 877
a 906 878
a 906 879
a 906 880
a 906 881
a 906 882
a 906 883
a 906 884
a 906 885
a 906 886
a 906 887
a 906 888
a 906 889
a 906 890
a 906 891
a 906 892
a 906 893
a 906 894
a 906 895
a 906 896
a 906 897
a 906 898
a 906 899
a 906 900
a 906 901
a 906 902
a 906 903
a 906 904
a 906 905
a 906 1059
a 906 907
a 906 908
a 906 909
a 906 910
a 906 911
a 906 912
a 906 913
a 906 914
a 906 915
a 906 916
a 906 917
a 906 918
a 906 919
a 906 920
a 906 921
a 906 922
a 906 923
a 906 924
a 906 925
a 906 926
a 906 927
a 906 928
a 906 929
a 906 930
a 906 861
a 906 931
a 906 932
a 906 933
a 906 934
a 906 935
a 906 936
a 906 937
a 906 938
a 906 939
a 906 940
a 906 941
a 906 942
a 906 943
a 906 944
a 906 945
a 906 946
a 906 947
a 906 948
a 906 949
a 906 950
a 906 951
a 906 952
a 906 953
a 907 875
a 907 876
a 907 877
a 907 878
a 907 879
a 907 880
a 907 881
a 907 882
a 907 883
a 907 884
a 907 885
a 907 886
a 907 887
a 907 888
a 907 889
a 907 890
a 907 891
a 907 892
a 907 893
a 907 894
a 907 895
a 907 896
a 907 897
a 907 898
a 907 899
a 907 900
a 907 901
a 907 902
a 907 903
a 907 904
a 907 905
a 907 906
a 907 908
a 907 909
a 907 910
a 907 911
a 907 912
a 907 913
a 907 914
a 907 915
a 907 916
a 907 917
a 907 918
a 907 919
a 907 920
a 907 921
a 907 922
a 907 923
a 907 924
a 907 925
a 907 926
a 907 927
a 907 928
a 907 929
a 907 930
a 907 861
a 907 931
a 907 932
a 907 933
a 907 934
a 907 935
a 907 936
a 907 937
a 907 938
a 907 939
a 907 940
a 907 941
a 907 942
a 907 943
a 907 944
a 907 945
a 907 946
a 907 947
a 907 948
a 907 949
a 907 950
a 907 951
a 907 952
a 907 953
a 908 875
a 908 876
a 908 877
a 908 878
a 908 879
a 908 880
a 908 881
a 908 882
a 908 883
a 908 884
a 908 885
a 908 886
a 908 887
a 908 888
a 908 889
a 908 890
a 908 891
a 908 892
a 908 893
a 908 894
a 908 895
a 908 896
a 908 897
a 908 898
a 908 899
a 908 900
a 908 901
a 908 902
a 908 903
a 908 904
a 908 905
a 908 906
a 908 907
a 908 909
a 908 910
a 908 911
a 908 912
a 908 913
a 908 914
a 908 915
a 908 916
a 908 917
a 908 918
a 908 919
a 908 920
a 908 921
a 908 922
a 908 923
a 908 924
a 908 925
a 908 926
a 908 927
a 908 928
a 908 929
a 908 930
a 908 861
a 908 931
a 908 932
a 908 933
a 908 934
a 908 935
a 908 936
a 908 937
a 908 938
a 908 939
a 908 940
a 908 941
a 908 942
a 908 943
a 908 944
a 908 945
a 908 946
a 908 947
a 908 1060
a 908 1061
a 908 1062
a 908 948
a 908 949
a 908 950
a 908 951
a 908 952
a 908 953
a 908 1040
a 908 1063
a 908 1043
a 908 1064
a 909 875
a 909 876
a 909 877
a 909 878
a 909 879
a 909 880
a 909 881
a 909 882
a 909 883
a 909 884
a 909 885
a 909 886
a 909 887
a 909 888
a 909 889
a 909 890
a 909 891
a 909 892
a 909 893
a 909 894
a 909 895
a 909 896
a 909 897
a 909 898
a 909 899
a 909 900
a 909 901
a 909 902
a 909 903
a 909 904
a 909 905
a 909 906
a 909 907
a 909 908
a 909 910
a 909 911
a 909 912
a 909 913
a 909 914
a 909 915
a 909 916
a 909 917
a 909 918
a 909 919
a 909 920
a 909 921
a 909 922
a 909 923
a 909 924
a 909 925
a 909 926
a 909 927
a 909 928
a 909 929
a 909 930
a 909 861
a 909 931
a 909 932
a 909 933
a 909 934
a 909 935
a 909 936
a 909 937
a 909 938
a 909 939
a 909 940
a 909 941
a 909 942
a 909 943
a 909 944
a 909 945
a 909 946
a 909 947
a 909 948
a 909 949
a 909 950
a 909 951
a 909 952
a 909 953
a 910 875
a 910 876
a 910 877
a 910 878
a 910 879
a 910 880
a 910 881
a 910 882
a 910 883
a 910 884
a 910 885
a 910 886
a 910 887
a 910 888
a 910 889
a 910 890
a 910 891
a 910 892
a 910 893
a 910 894
a 910 895
a 910 896
a 910 897
a 910 898
a 910 899
a 910 900
a 910 901
a 910 902
a 910 903
a 910 904
a 910 905
a 910 906
a 910 907
a 910 908
a 910 909
a 910 911
a 910 912
a 910 913
a 910 914
a 910 915
a 910 916
a 910 917
a 910 918
a 910 919
a 910 920
a 910 921
a 910 922
a 910 923
a 910 924
a 910 925
a 910 926
a 910 927
a 910 928
a 910 929
a 910 930
a 910 861
a 910 931
a 910 932
a 910 933
a 910 934
a 910 935
a 910 936
a 910 937
a 910 938
a 910 939
a 910 940
a 910 941
a 910 942
a 910 943
a 910 944
a 910 945
a 910 946
a 910 947
a 910 948
a 910 949
a 910 950
a 910 951
a 910 952
a 910 953
a 910 1065
a 911 875
a 911 876
a 911 877
a 911 878
a 911 879
a 911 880
a 911 881
a 911 882
a 911 883
a 911 884
a 911 885
a 911 886
a 911 887
a 911 888
a 911 889
a 911 890
a 911 891
a 911 892
a 911 893
a 911 894
a 911 895
a 911 896
a 911 897
a 911 898
a 911 899
a 911 900
a 911 901
a 911 902
a 911 903
a 911 904
a 911 905
a 911 906
a 911 907
a 911 908
a 911 909
a 911 910
a 911 912
a 911 913
a 911 914
a 911 915
a 911 916
a 911 917
a 911 918
a 911 919
a 911 920
a 911 921
a 911 922
a 911 923
a 911 924
a 911 925
a 911 926
a 911 927
a 911 928
a 911 929
a 911 930
a 911 861
a 911 931
a 911 932
a 911 933
a 911 934
a 911 935
a 911 936
a 911 937
a 911 938
a 911 939
a 911 940
a 911 941
a 911 942
a 911 943
a 911 944
a 911 945
a 911 946
a 911 947
a 911 948
a 911 949
a 911 950
a 911 951
a 911 952
a 911 953
a 912 875
a 912 876
a 912 877
a 912 878
a 912 879
a 912 880
a 912 881
a 912 882
a 912 883
a 912 884
a 912 885
a 912 886
a 912 887
a 912 888
a 912 889
a 912 890
a 912 891
a 912 892
a 912 893
a 912 894
a 912 895
a 912 896
a 912 897
a 912 898
a 912 899
a 912 900
a 912 901
a 912 902
a 912 903
a 912 904
a 912 905
a 912 906
a 912 907
a 912 908
a 912 909
a 912 910
a 912 911
a 912 913
a 912 914
a 912 915
a 912 916
a 912 917
a 912 918
a 912 919
a 912 920
a 912 921
a 912 922
a 912 923
a 912 924
a 912 925
a 912 926
a 912 927
a 912 928
a 912 929
a 912 930
a 912 861
a 912 931
a 912 932
a 912 933
a 912 934
a 912 935
a 912 936
a 912 937
a 912 938
a 912 939
a 912 940
a 912 941
a 912 942
a 912 943
a 912 944
a 912 945
a 912 946
a 912 947
a 912 948
a 912 949
a 912 950
a 912 951
a 912 952
a 912 953
a 912 1066
a 913 875
a 913 876
a 913 877
a 913 878
a 913 879
a 913 880
a 913 881
a 913 882
a 913 883
a 913 884
a 913 885
a 913 886
a 913 887
a 913 888
a 913 889
a 913 890
a 913 891
a 913 892
a 913 893
a 913 894
a 913 895
a 913 896
a 913 897
a 913 898
a 913 899
a 913 900
a 913 901
a 913 902
a 913 903
a 913 904
a 913 905
a 913 906
a 913 907
a 913 908
a 913 909
a 913 910
a 913 911
a 913 912
a 913 914
a 913 915
a 913 916
a 913 917
a 913 918
a 913 919
a 913 920
a 913 921
a 913 922
a 913 923
a 913 924
a 913 925
a 913 926
a 913 927
a 913 928
a 913 929
a 913 930
a 913 861
a 913 931
a 913 932
a 913 933
a 913 934
a 913 935
a 913 936
a 913 937
a 913 938
a 913 939
a 913 940
a 913 941
a 913 942
a 913 943
a 913 944
a 913 945
a 913 946
a 913 947
a 913 948
a 913 949
a 913 950
a 913 951
a 913 952
a 913 953
a 914 875
a 914 876
a 914 877
a 914 878
a 914 879
a 914 880
a 914 881
a 914 882
a 914 883
a 914 884
a 914 885
a 914 886
a 914 887
a 914 888
a 914 889
a 914 890
a 914 891
a 914 892
a 914 893
a 914 894
a 914 895
a 914 896
a 914 897
a 914 898
a 914 899
a 914 900
a 914 901
a 914 902
a 914 903
a 914 904
a 914 905
a 914 906
a 914 907
a 914 908
a 914 909
a 914 910
a 914 911
a 914 912
a 914 913
a 914 915
a 914 916
a 914 917
a 914 918
a 914 919
a 914 920
a 914 921
a 914 922
a 914 923
a 914 924
a 914 925
a 914 926
a 914 927
a 914 928
a 914 929
a 914 930
a 914 861
a 914 931
a 914 932
a 914 933
a 914 934
a 914 935
a 914 936
a 914 937
a 914 938
a 914 939
a 914 940
a 914 941
a 914 942
a 914 943
a 914 944
a 914 945
a 914 946
a 914 947
a 914 948
a 914 949
a 914 950
a 914 951
a 914 952
a 914 953
a 914 1066
a 915 875
a 915 876
a 915 877
a 915 878
a 915 879
a 915 880
a 915 881
a 915 882
a 915 883
a 915 884
a 915 885
a 915 886
a 915 887
a 915 888
a 915 889
a 915 890
a 915 891
a 915 892
a 915 893
a 915 894
a 915 895
a 915 896
a 915 897
a 915 898
a 915 899
a 915 900
a 915 901
a 915 902
a 915 903
a 915 904
a 915 905
a 915 906
a 915 907
a 915 908
a 915 909
a 915 910
a 915 911
a 915 912
a 915 913
a 915 914
a 915 916
a 915 917
a 915 918
a 915 919
a 915 920
a 915 921
a 915 922
a 915 923
a 915 924
a 915 925
a 915 926
a 915 927
a 915 928
a 915 929
a 915 930
a 915 861
a 915 931
a 915 932
a 915 933
a 915 934
a 915 935
a 915 936
a 915 937
a 915 938
a 915 939
a 915 940
a 915 941
a 915 942
a 915 943
a 915 944
a 915 945
a 915 946
a 915 947
a 915 948
a 915 949
a 915 950
a 915 951
a 915 952
a 915 953
a 916 875
a 916 876
a 916 877
a 916 878
a 916 879
a 916 880
a 916 881
a 916 882
a 916 883
a 916 884
a 916 885
a 916 886
a 916 887
a 916 888
a 916 889
a 916 890
a 916 891
a 916 892
a 916 893
a 916 894
a 916 895
a 916 896
a 916 897
a 916 898
a 916 899
a 916 900
a 916 901
a 916 902
a 916 903
a 916 904
a 916 905
a 916 906
a 916 907
a 916 908
a 916 909
a 916 910
a 916 911
a 916 912
a 916 913
a 916 914
a 916 915
a 916 917
a 916 918
a 916 919
a 916 920
a 916 921
a 916 922
a 916 923
a 916 924
a 916 925
a 916 926
a 916 927
a 916 928
a 916 929
a 916 930
a 916 861
a 916 931
a 916 932
a 916 933
a 916 934
a 916 935
a 916 936
a 916 937
a 916 938
a 916 939
a 916 940
a 916 941
a 916 942
a 916 943
a 916 944
a 916 945
a 916 946
a 916 947
a 916 948
a 916 949
a 916 950
a 916 951
a 916 952
a 916 953
a 916 1066
a 917 875
a 917 876
a 917 877
a 917 878
a 917 879
a 917 880
a 917 881
a 917 882
a 917 883
a 917 884
a 917 885
a 917 886
a 917 887
a 917 888
a 917 889
a 917 890
a 917 891
a 917 892
a 917 893
a 917 894
a 917 895
a 917 896
a 917 897
a 917 898
a 917 899
a 917 900
a 917 901
a 917 902
a 917 903
a 917 904
a 917 905
a 917 906
a 917 907
a 917 908
a 917 909
a 917 910
a 917 911
a 917 912
a 917 913
a 917 914
a 917 915
a 917 916
a 917 918
a 917 919
a 917 920
a 917 921
a 917 922
a 917 923
a 917 924
a 917 925
a 917 926
a 917 927
a 917 928
a 917 929
a 917 930
a 917 861
a 917 931
a 917 932
a 917 933
a 917 934
a 917 935
a 917 936
a 917 937
a 917 938
a 917 939
a 917 940
a 917 941
a 917 942
a 917 943
a 917 944
a 917 945
a 917 946
a 917 947
a 917 948
a 917 949
a 917 950
a 917 951
a 917 952
a 917 953
a 918 875
a 918 876
a 918 877
a 918 878
a 918 879
a 918 880
a 918 881
a 918 882
a 918 883
a 918 884
a 918 885
a 918 886
a 918 887
a 918 888
a 918 889
a 918 890
a 918 891
a 918 892
a 918 893
a 918 894
a 918 895
a 918 896
a 918 897
a 918 898
a 918 899
a 918 900
a 918 901
a 918 902
a 918 903
a 918 904
a 918 905
a 918 906
a 918 907
a 918 908
a 918 909
a 918 910
a 918 911
a 918 912
a 918 913
a 918 914
a 918 915
a 918 916
a 918 917
a 918 919
a 918 920
a 918 921
a 918 922
a 918 923
a 918 924
a 918 925
a 918 926
a 918 927
a 918 928
a 918 929
a 918 930
a 918 861
a 918 931
a 918 932
a 918 933
a 918 934
a 918 935
a 918 936
a 918 937
a 918 938
a 918 939
a 918 940
a 918 941
a 918 942
a 918 943
a 918 944
a 918 945
a 918 946
a 918 947
a 918 948
a 918 949
a 918 950
a 918 951
a 918 952
a 918 953
a 918 1066
a 919 875
a 919 876
a 919 877
a 919 878
a 919 879
a 919 880
a 919 881
a 919 882
a 919 883
a 919 884
a 919 885
a 919 886
a 919 887
a 919 888
a 919 889
a 919 890
a 919 891
a 919 892
a 919 893
a 919 894
a 919 895
a 919 896
a 919 897
a 919 898
a 919 899
a 919 900
a 919 901
a 919 902
a 919 903
a 919 904
a 919 905
a 919 906
a 919 907
a 919 908
a 919 909
a 919 910
a 919 911
a 919 912
a 919 913
a 919 914
a 919 915
a 919 916
a 919 917
a 919 918
a 919 920
a 919 921
a 919 922
a 919 923
a 919 924
a 919 925
a 919 926
a 919 927
a 919 928
a 919 929
a 919 930
a 919 861
a 919 931
a 919 932
a 919 933
a 919 934
a 919 935
a 919 936
a 919 937
a 919 938
a 919 939
a 919 940
a 919 941
a 919 942
a 919 943
a 919 944
a 919 945
a 919 946
a 919 947
a 919 948
a 919 949
a 919 950
a 919 951
a 919 952
a 919 953
a 920 875
a 920 876
a 920 877
a 920 878
a 920 879
a 920 880
a 920 881
a 920 882
a 920 883
a 920 884
a 920 885
a 920 886
a 920 887
a 920 888
a 920 889
a 920 890
a 920 891
a 920 892
a 920 893
a 920 894
a 920 895
a 920 896
a 920 897
a 920 898
a 920 899
a 920 900
a 920 901
a 920 902
a 920 903
a 920 904
a 920 905
a 920 906
a 920 907
a 920 908
a 920 909
a 920 910
a 920 911
a 920 912
a 920 913
a 920 914
a 920 915
a 920 916
a 920 917
a 920 918
a 920 919
a 920 921
a 920 922
a 920 923
a 920 924
a 920 925
a 920 926
a 920 927
a 920 928
a 920 929
a 920 930
a 920 861
a 920 931
a 920 932
a 920 933
a 920 934
a 920 935
a 920 936
a 920 937
a 920 938
a 920 939
a 920 940
a 920 941
a 920 942
a 920 943
a 920 944
a 920 945
a 920 946
a 920 947
a 920 948
a 920 949
a 920 950
a 920 951
a 920 952
a 920 953
a 920 1066
a 921 875
a 921 876
a 921 877
a 921 878
a 921 879
a 921 880
a 921 881
a 921 882
a 921 883
a 921 884
a 921 885
a 921 886
a 921 887
a 921 888
a 921 889
a 921 890
a 921 891
a 921 892
a 921 893
a 921 894
a 921 895
a 921 896
a 921 897
a 921 898
a 921 899
a 921 900
a 921 901
a 921 902
a 921 903
a 921 904
a 921 905
a 921 906
a 921 907
a 921 908
a 921 909
a 921 910
a 921 911
a 921 912
a 921 913
a 921 914
a 921 915
a 921 916
a 921 917
a 921 918
a 921 919
a 921 920
a 921 922
a 921 923
a 921 924
a 921 925
a 921 926
a 921 927
a 921 928
a 921 929
a 921 930
a 921 861
a 921 931
a 921 932
a 921 933
a 921 934
a 921 935
a 921 936
a 921 937
a 921 938
a 921 939
a 921 940
a 921 941
a 921 942
a 921 943
a 921 944
a 921 945
a 921 946
a 921 947
a 921 948
a 921 949
a 921 950
a 921 951
a 921 952
a 921 953
a 922 875
a 922 876
a 922 877
a 922 878
a 922 879
a 922 880
a 922 881
a 922 882
a 922 883
a 922 884
a 922 885
a 922 886
a 922 887
a 922 888
a 922 889
a 922 890
a 922 891
a 922 892
a 922 893
a 922 894
a 922 895
a 922 896
a 922 897
a 922 898
a 922 899
a 922 900
a 922 901
a 922 902
a 922 903
a 922 904
a 922 905
a 922 906
a 922 907
a 922 908
a 922 909
a 922 910
a 922 911
a 922 912
a 922 913
a 922 914
a 922 915
a 922 916
a 922 917
a 922 918
a 922 919
a 922 920
a 922 921
a 922 923
a 922 924
a 922 925
a 922 926
a 922 927
a 922 928
a 922 929
a 922 930
a 922 861
a 922 931
a 922 932
a 922 933
a 922 934
a 922 935
a 922 936
a 922 937
a 922 938
a 922 939
a 922 940
a 922 941
a 922 942
a 922 943
a 922 944
a 922 945
a 922 946
a 922 947
a 922 948
a 922 949
a 922 950
a 922 951
a 922 952
a 922 953
a 923 875
a 923 876
a 923 877
a 923 878
a 923 879
a 923 880
a 923 881
a 923 882
a 923 883
a 923 884
a 923 885
a 923 886
a 923 887
a 923 888
a 923 889
a 923 890
a 923 891
a 923 892
a 923 893
a 923 894
a 923 895
a 923 896
a 923 897
a 923 898
a 923 899
a 923 900
a 923 901
a 923 902
a 923 903
a 923 904
a 923 905
a 923 906
a 923 907
a 923 908
a 923 909
a 923 910
a 923 911
a 923 912
a 923 913
a 923 914
a 923 915
a 923 916
a 923 917
a 923 918
a 923 919
a 923 920
a 923 921
a 923 922
a 923 924
a 923 925
a 923 926
a 923 927
a 923 928
a 923 929
a 923 930
a 923 861
a 923 931
a 923 932
a 923 933
a 923 934
a 923 935
a 923 936
a 923 937
a 923 938
a 923 939
a 923 940
a 923 941
a 923 942
a 923 943
a 923 944
a 923 945
a 923 946
a 923 947
a 923 948
a 923 949
a 923 950
a 923 951
a 923 952
a 923 953
a 924 875
a 924 876
a 924 877
a 924 878
a 924 879
a 924 880
a 924 881
a 924 882
a 924 883
a 924 884
a 924 885
a 924 886
a 924 887
a 924 888
a 924 889
a 924 890
a 924 891
a 924 892
a 924 893
a 924 894
a 924 895
a 924 896
a 924 897
a 924 898
a 924 899
a 924 900
a 924 901
a 924 902
a 924 903
a 924 904
a 924 905
a 924 906
a 924 907
a 924 908
a 924 909
a 924 910
a 924 911
a 924 912
a 924 913
a 924 914
a 924 915
a 924 916
a 924 917
a 924 918
a 924 919
a 924 920
a 924 921
a 924 922
a 924 923
a 924 925
a 924 926
a 924 927
a 924 928
a 924 929
a 924 930
a 924 861
a 924 931
a 924 932
a 924 933
a 924 934
a 924 935
a 924 936
a 924 937
a 924 938
a 924 939
a 924 940
a 924 941
a 924 942
a 924 943
a 924 944
a 924 945
a 924 946
a 924 947
a 924 948
a 924 949
a 924 950
a 924 951
a 924 952
a 924 953
a 924 1066
a 925 875
a 925 876
a 925 877
a 925 878
a 925 879
a 925 880
a 925 881
a 925 882
a 925 883
a 925 884
a 925 885
a 925 886
a 925 887
a 925 888
a 925 889
a 925 890
a 925 891
a 925 892
a 925 893
a 925 894
a 925 895
a 925 896
a 925 897
a 925 898
a 925 899
a 925 900
a 925 901
a 925 902
a 925 903
a 925 904
a 925 905
a 925 906
a 925 907
a 925 908
a 925 909
a 925 910
a 925 911
a 925 912
a 925 913
a 925 914
a 925 915
a 925 916
a 925 917
a 925 918
a 925 919
a 925 920
a 925 921
a 925 922
a 925 923
a 925 924
a 925 926
a 925 927
a 925 928
a 925 929
a 925 930
a 925 861
a 925 931
a 925 932
a 925 933
a 925 934
a 925 935
a 925 936
a 925 937
a 925 938
a 925 939
a 925 940
a 925 941
a 925 942
a 925 943
a 925 944
a 925 945
a 925 946
a 925 947
a 925 948
a 925 949
a 925 950
a 925 951
a 925 952
a 925 953
a 926 875
a 926 876
a 926 877
a 926 878
a 926 879
a 926 880
a 926 881
a 926 882
a 926 883
a 926 884
a 926 885
a 926 886
a 926 887
a 926 888
a 926 889
a 926 890
a 926 891
a 926 892
a 926 893
a 926 894
a 926 895
a 926 896
a 926 897
a 926 898
a 926 899
a 926 900
a 926 901
a 926 902
a 926 903
a 926 904
a 926 905
a 926 906
a 926 907
a 926 908
a 926 909
a 926 910
a 926 911
a 926 912
a 926 913
a 926 914
a 926 915
a 926 916
a 926 917
a 926 918
a 926 919
a 926 920
a 926 921
a 926 922
a 926 923
a 926 924
a 926 925
a 926 927
a 926 928
a 926 929
a 926 930
a 926 861
a 926 931
a 926 932
a 926 933
a 926 934
a 926 935
a 926 936
a 926 937
a 926 938
a 926 939
a 926 940
a 926 941
a 926 942
a 926 943
a 926 944
a 926 945
a 926 946
a 926 947
a 926 948
a 926 949
a 926 950
a 926 951
a 926 952
a 926 953
a 927 875
a 927 876
a 927 877
a 927 878
a 927 879
a 927 880
a 927 881
a 927 882
a 927 883
a 927 884
a 927 885
a 927 886
a 927 887
a 927 888
a 927 889
a 927 890
a 927 891
a 927 892
a 927 893
a 927 894
a 927 895
a 927 896
a 927 897
a 927 898
a 927 899
a 927 900
a 927 901
a 927 902
a 927 903
a 927 904
a 927 905
a 927 906
a 927 907
a 927 908
a 927 909
a 927 910
a 927 911
a 927 912
a 927 913
a 927 914
a 927 915
a 927 916
a 927 917
a 927 918
a 927 919
a 927 920
a 927 921
a 927 922
a 927 923
a 927 924
a 927 925
a 927 926
a 927 928
a 927 929
a 927 930
a 927 861
a 927 931
a 927 932
a 927 933
a 927 934
a 927 935
a 927 936
a 927 937
a 927 938
a 927 939
a 927 940
a 927 941
a 927 942
a 927 943
a 927 944
a 927 945
a 927 946
a 927 947
a 927 948
a 927 949
a 927 950
a 927 951
a 927 952
a 927 953
a 928 875
a 928 876
a 928 877
a 928 878
a 928 879
a 928 880
a 928 881
a 928 882
a 928 883
a 928 884
a 928 885
a 928 886
a 928 887
a 928 888
a 928 889
a 928 890
a 928 891
a 928 892
a 928 893
a 928 894
a 928 895
a 928 896
a 928 897
a 928 898
a 928 899
a 928 900
a 928 901
a 928 902
a 928 903
a 928 904
a 928 905
a 928 906
a 928 907
a 928 908
a 928 909
a 928 910
a 928 911
a 928 912
a 928 913
a 928 914
a 928 915
a 928 916
a 928 917
a 928 918
a 928 919
a 928 920
a 928 921
a 928 922
a 928 923
a 928 924
a 928 925
a 928 926
a 928 927
a 928 929
a 928 930
a 928 861
a 928 931
a 928 932
a 928 933
a 928 934
a 928 935
a 928 936
a 928 937
a 928 938
a 928 939
a 928 940
a 928 941
a 928 942
a 928 943
a 928 944
a 928 945
a 928 946
a 928 947
a 928 948
a 928 949
a 928 950
a 928 951
a 928 952
a 928 953
a 928 1067
a 928 1068
a 928 1069
a 928 1070
a 929 875
a 929 876
a 929 877
a 929 878
a 929 879
a 929 880
a 929 881
a 929 882
a 929 883
a 929 884
a 929 885
a 929 886
a 929 887
a 929 888
a 929 889
a 929 890
a 929 891
a 929 892
a 929 893
a 929 894
a 929 895
a 929 896
a 929 897
a 929 898
a 929 899
a 929 900
a 929 901
a 929 902
a 929 903
a 929 904
a 929 905
a 929 906
a 929 907
a 929 908
a 929 909
a 929 910
a 929 911
a 929 912
a 929 913
a 929 914
a 929 915
a 929 916
a 929 917
a 929 918
a 929 919
a 929 920
a 929 921
a 929 922
a 929 923
a 929 924
a 929 925
a 929 926
a 929 927
a 929 928
a 929 930
a 929 861
a 929 931
a 929 932
a 929 933
a 929 934
a 929 935
a 929 936
a 929 937
a 929 938
a 929 939
a 929 940
a 929 941
a 929 942
a 929 943
a 929 944
a 929 945
a 929 946
a 929 947
a 929 948
a 929 949
a 929 950
a 929 951
a 929 952
a 929 953
a 930 875
a 930 876
a 930 877
a 930 878
a 930 879
a 930 880
a 930 881
a 930 882
a 930 883
a 930 884
a 930 885
a 930 886
a 930 887
a 930 888
a 930 889
a 930 890
a 930 891
a 930 892
a 930 893
a 930 894
a 930 895
a 930 896
a 930 897
a 930 898
a 930 899
a 930 900
a 930 901
a 930 902
a 930 903
a 930 904
a 930 905
a 930 906
a 930 907
a 930 908
a 930 909
a 930 910
a 930 911
a 930 912
a 930 913
a 930 914
a 930 915
a 930 916
a 930 917
a 930 918
a 930 919
a 930 920
a 930 921
a 930 922
a 930 923
a 930 924
a 930 925
a 930 926
a 930 927
a 930 928
a 930 929
a 930 861
a 930 931
a 930 932
a 930 933
a 930 934
a 930 935
a 930 936
a 930 937
a 930 938
a 930 939
a 930 940
a 930 941
a 930 942
a 930 943
a 930 944
a 930 945
a 930 946
a 930 947
a 930 948
a 930 949
a 930 950
a 930 951
a 930 952
a 930 953
a 931 875
a 931 876
a 931 877
a 931 878
a 931 879
a 931 880
a 931 881
a 931 882
a 931 883
a 931 884
a 931 885
a 931 886
a 931 887
a 931 888
a 931 889
a 931 890
a 931 891
a 931 892
a 931 893
a 931 894
a 931 895
a 931 896
a 931 897
a 931 898
a 931 899
a 931 900
a 931 901
a 931 902
a 931 903
a 931 904
a 931 905
a 931 906
a 931 907
a 931 908
a 931 909
a 931 910
a 931 911
a 931 912
a 931 913
a 931 914
a 931 915
a 931 916
a 931 917
a 931 918
a 931 919
a 931 920
a 931 921
a 931 922
a 931 923
a 931 924
a 931 925
a 931 926
a 931 927
a 931 928
a 931 929
a 931 930
a 931 861
a 931 932
a 931 933
a 931 934
a 931 935
a 931 936
a 931 937
a 931 938
a 931 939
a 931 940
a 931 941
a 931 942
a 931 943
a 931 944
a 931 945
a 931 946
a 931 947
a 931 948
a 931 949
a 931 950
a 931 951
a 931 952
a 931 953
a 931 1066
a 932 875
a 932 876
a 932 877
a 932 878
a 932 879
a 932 880
a 932 881
a 932 882
a 932 883
a 932 884
a 932 885
a 932 886
a 932 887
a 932 888
a 932 889
a 932 890
a 932 891
a 932 892
a 932 893
a 932 894
a 932 895
a 932 896
a 932 897
a 932 898
a 932 899
a 932 900
a 932 901
a 932 902
a 932 903
a 932 904
a 932 905
a 932 906
a 932 907
a 932 908
a 932 909
a 932 910
a 932 911
a 932 912
a 932 913
a 932 914
a 932 915
a 932 916
a 932 917
a 932 918
a 932 919
a 932 920
a 932 921
a 932 922
a 932 923
a 932 924
a 932 925
a 932 926
a 932 927
a 932 928
a 932 929
a 932 930
a 932 861
a 932 931
a 932 933
a 932 934
a 932 935
a 932 936
a 932 937
a 932 938
a 932 939
a 932 940
a 932 941
a 932 942
a 932 943
a 932 944
a 932 945
a 932 946
a 932 947
a 932 948
a 932 949
a 932 950
a 932 951
a 932 952
a 932 953
a 933 875
a 933 876
a 933 877
a 933 878
a 933 879
a 933 880
a 933 881
a 933 882
a 933 883
a 933 884
a 933 885
a 933 886
a 933 887
a 933 888
a 933 889
a 933 890
a 933 891
a 933 892
a 933 893
a 933 894
a 933 895
a 933 896
a 933 897
a 933 898
a 933 899
a 933 900
a 933 901
a 933 902
a 933 903
a 933 904
a 933 905
a 933 906
a 933 907
a 933 908
a 933 909
a 933 910
a 933 911
a 933 912
a 933 913
a 933 914
a 933 915
a 933 916
a 933 917
a 933 918
a 933 919
a 933 920
a 933 921
a 933 922
a 933 923
a 933 924
a 933 925
a 933 926
a 933 927
a 933 928
a 933 929
a 933 930
a 933 861
a 933 931
a 933 932
a 933 934
a 933 935
a 933 936
a 933 937
a 933 938
a 933 939
a 933 940
a 933 941
a 933 942
a 933 943
a 933 944
a 933 945
a 933 946
a 933 947
a 933 1071
a 933 948
a 933 949
a 933 950
a 933 951
a 933 952
a 933 953
a 934 875
a 934 876
a 934 877
a 934 878
a 934 879
a 934 880
a 934 881
a 934 882
a 934 883
a 934 884
a 934 885
a 934 886
a 934 887
a 934 888
a 934 889
a 934 890
a 934 891
a 934 892
a 934 893
a 934 894
a 934 895
a 934 896
a 934 897
a 934 898
a 934 899
a 934 900
a 934 901
a 934 902
a 934 903
a 934 904
a 934 905
a 934 906
a 934 907
a 934 908
a 934 909
a 934 910
a 934 911
a 934 912
a 934 913
a 934 914
a 934 915
a 934 916
a 934 917
a 934 918
a 934 919
a 934 920
a 934 921
a 934 922
a 934 923
a 934 924
a 934 925
a 934 926
a 934 927
a 934 928
a 934 929
a 934 930
a 934 861
a 934 931
a 934 932
a 934 933
a 934 935
a 934 936
a 934 937
a 934 938
a 934 939
a 934 940
a 934 941
a 934 942
a 934 943
a 934 944
a 934 945
a 934 946
a 934 947
a 934 948
a 934 949
a 934 950
a 934 951
a 934 952
a 934 953
a 935 875
a 935 876
a 935 877
a 935 878
a 935 879
a 935 880
a 935 881
a 935 882
a 935 883
a 935 884
a 935 885
a 935 886
a 935 887
a 935 888
a 935 889
a 935 890
a 935 891
a 935 892
a 935 893
a 935 894
a 935 895
a 935 896
a 935 897
a 935 898
a 935 899
a 935 900
a 935 901
a 935 902
a 935 903
a 935 904
a 935 905
a 935 906
a 935 907
a 935 908
a 935 909
a 935 910
a 935 911
a 935 912
a 935 913
a 935 914
a 935 915
a 935 916
a 935 917
a 935 918
a 935 919
a 935 920
a 935 921
a 935 922
a 935 923
a 935 924
a 935 925
a 935 926
a 935 927
a 935 928
a 935 929
a 935 930
a 935 861
a 935 931
a 935 932
a 935 933
a 935 934
a 935 936
a 935 937
a 935 938
a 935 939
a 935 940
a 935 941
a 935 942
a 935 943
a 935 944
a 935 945
a 935 946
a 935 947
a 935 948
a 935 949
a 935 950
a 935 951
a 935 952
a 935 953
a 935 1072
a 936 875
a 936 876
a 936 877
a 936 878
a 936 879
a 936 880
a 936 881
a 936 882
a 936 883
a 936 884
a 936 885
a 936 886
a 936 887
a 936 888
a 936 889
a 936 890
a 936 891
a 936 892
a 936 893
a 936 894
a 936 895
a 936 896
a 936 897
a 936 898
a 936 899
a 936 900
a 936 901
a 936 902
a 936 903
a 936 904
a 936 905
a 936 906
a 936 907
a 936 908
a 936 909
a 936 910
a 936 911
a 936 912
a 936 913
a 936 914
a 936 915
a 936 916
a 936 917
a 936 918
a 936 919
a 936 920
a 936 921
a 936 922
a 936 923
a 936 924
a 936 925
a 936 926
a 936 927
a 936 928
a 936 929
a 936 930
a 936 861
a 936 931
a 936 932
a 936 933
a 936 934
a 936 935
a 936 937
a 936 938
a 936 939
a 936 940
a 936 941
a 936 942
a 936 943
a 936 944
a 936 945
a 936 946
a 936 947
a 936 948
a 936 949
a 936 950
a 936 951
a 936 952
a 936 953
a 937 875
a 937 876
a 937 877
a 937 878
a 937 879
a 937 880
a 937 881
a 937 882
a 937 883
a 937 884
a 937 885
a 937 886
a 937 887
a 937 888
a 937 889
a 937 890
a 937 891
a 937 892
a 937 893
a 937 894
a 937 895
a 937 896
a 937 897
a 937 898
a 937 899
a 937 900
a 937 901
a 937 902
a 937 903
a 937 904
a 937 905
a 937 906
a 937 907
a 937 908
a 937 909
a 937 910
a 937 911
a 937 912
a 937 913
a 937 914
a 937 915
a 937 916
a 937 917
a 937 918
a 937 919
a 937 920
a 937 921
a 937 922
a 937 923
a 937 924
a 937 925
a 937 926
a 937 927
a 937 928
a 937 929
a 937 930
a 937 861
a 937 931
a 937 932
a 937 933
a 937 934
a 937 935
a 937 936
a 937 938
a 937 939
a 937 940
a 937 941
a 937 942
a 937 943
a 937 944
a 937 945
a 937 946
a 937 947
a 937 1071
a 937 948
a 937 949
a 937 950
a 937 951
a 937 952
a 937 953
a 938 875
a 938 876
a 938 877
a 938 878
a 938 879
a 938 880
a 938 881
a 938 882
a 938 883
a 938 884
a 938 885
a 938 886
a 938 887
a 938 888
a 938 889
a 938 890
a 938 891
a 938 892
a 938 893
a 938 894
a 938 895
a 938 896
a 938 897
a 938 898
a 938 899
a 938 900
a 938 901
a 938 902
a 938 903
a 938 904
a 938 905
a 938 906
a 938 907
a 938 908
a 938 909
a 938 910
a 938 911
a 938 912
a 938 913
a 938 914
a 938 915
a 938 916
a 938 917
a 938 918
a 938 919
a 938 920
a 938 921
a 938 922
a 938 923
a 938 924
a 938 925
a 938 926
a 938 927
a 938 928
a 938 929
a 938 930
a 938 861
a 938 931
a 938 932
a 938 933
a 938 934
a 938 935
a 938 936
a 938 937
a 938 939
a 938 940
a 938 941
a 938 942
a 938 943
a 938 944
a 938 945
a 938 946
a 938 947
a 938 948
a 938 949
a 938 950
a 938 951
a 938 952
a 938 953
a 939 875
a 939 876
a 939 877
a 939 878
a 939 879
a 939 880
a 939 881
a 939 882
a 939 883
a 939 884
a 939 885
a 939 886
a 939 887
a 939 888
a 939 889
a 939 890
a 939 891
a 939 892
a 939 893
a 939 894
a 939 895
a 939 896
a 939 897
a 939 898
a 939 899
a 939 900
a 939 901
a 939 902
a 939 903
a 939 904
a 939 905
a 939 906
a 939 907
a 939 908
a 939 909
a 939 910
a 939 911
a 939 912
a 939 913
a 939 914
a 939 915
a 939 916
a 939 917
a 939 918
a 939 919
a 939 920
a 939 921
a 939 922
a 939 923
a 939 924
a 939 925
a 939 926
a 939 927
a 939 928
a 939 929
a 939 930
a 939 861
a 939 931
a 939 932
a 939 933
a 939 934
a 939 935
a 939 936
a 939 937
a 939 938
a 939 940
a 939 941
a 939 942
a 939 943
a 939 944
a 939 945
a 939 946
a 939 947
a 939 948
a 939 949
a 939 950
a 939 951
a 939 952
a 939 953
a 939 1072
a 940 875
a 940 876
a 940 877
a 940 878
a 940 879
a 940 880
a 940 881
a 940 882
a 940 883
a 940 884
a 940 885
a 940 886
a 940 887
a 940 888
a 940 889
a 940 890
a 940 891
a 940 892
a 940 893
a 940 894
a 940 895
a 940 896
a 940 897
a 940 898
a 940 899
a 940 900
a 940 901
a 940 902
a 940 903
a 940 904
a 940 905
a 940 906
a 940 907
a 940 908
a 940 909
a 940 910
a 940 911
a 940 912
a 940 913
a 940 914
a 940 915
a 940 916
a 940 917
a 940 918
a 940 919
a 940 920
a 940 921
a 940 922
a 940 923
a 940 924
a 940 925
a 940 926
a 940 927
a 940 928
a 940 929
a 940 930
a 940 861
a 940 931
a 940 932
a 940 933
a 940 934
a 940 935
a 940 936
a 940 937
a 940 938
a 940 939
a 940 941
a 940 942
a 940 943
a 940 944
a 940 945
a 940 946
a 940 947
a 940 948
a 940 949
a 940 950
a 940 951
a 940 952
a 940 953
a 941 875
a 941 876
a 941 877
a 941 878
a 941 879
a 941 880
a 941 881
a 941 882
a 941 883
a 941 884
a 941 885
a 941 886
a 941 887
a 941 888
a 941 889
a 941 890
a 941 891
a 941 892
a 941 893
a 941 894
a 941 895
a 941 896
a 941 897
a 941 898
a 941 899
a 941 900
a 941 901
a 941 902
a 941 903
a 941 904
a 941 905
a 941 906
a 941 907
a 941 908
a 941 909
a 941 910
a 941 911
a 941 912
a 941 913
a 941 914
a 941 915
a 941 916
a 941 917
a 941 918
a 941 919
a 941 920
a 941 921
a 941 922
a 941 923
a 941 924
a 941 925
a 941 926
a 941 927
a 941 928
a 941 929
a 941 930
a 941 861
a 941 931
a 941 932
a 941 933
a 941 934
a 941 935
a 941 936
a 941 937
a 941 938
a 941 939
a 941 940
a 941 942
a 941 943
a 941 944
a 941 945
a 941 946
a 941 947
a 941 1071
a 941 948
a 941 949
a 941 950
a 941 951
a 941 952
a 941 953
a 942 875
a 942 876
a 942 877
a 942 878
a 942 879
a 942 880
a 942 881
a 942 882
a 942 883
a 942 884
a 942 885
a 942 886
a 942 887
a 942 888
a 942 889
a 942 890
a 942 891
a 942 892
a 942 893
a 942 894
a 942 895
a 942 896
a 942 897
a 942 898
a 942 899
a 942 900
a 942 901
a 942 902
a 942 903
a 942 904
a 942 905
a 942 906
a 942 907
a 942 908
a 942 909
a 942 910
a 942 911
a 942 912
a 942 913
a 942 914
a 942 915
a 942 916
a 942 917
a 942 918
a 942 919
a 942 920
a 942 921
a 942 922
a 942 923
a 942 924
a 942 925
a 942 926
a 942 927
a 942 928
a 942 929
a 942 930
a 942 861
a 942 931
a 942 932
a 942 933
a 942 934
a 942 935
a 942 936
a 942 937
a 942 938
a 942 939
a 942 940
a 942 941
a 942 943
a 942 944
a 942 945
a 942 946
a 942 947
a 942 948
a 942 949
a 942 950
a 942 951
a 942 952
a 942 953
a 943 875
a 943 876
a 943 877
a 943 878
a 943 879
a 943 880
a 943 881
a 943 882
a 943 883
a 943 884
a 943 885
a 943 886
a 943 887
a 943 888
a 943 889
a 943 890
a 943 891
a 943 892
a 943 893
a 943 894
a 943 895
a 943 896
a 943 897
a 943 898
a 943 899
a 943 900
a 943 901
a 943 902
a 943 903
a 943 904
a 943 905
a 943 906
a 943 907
a 943 908
a 943 909
a 943 910
a 943 911
a 943 912
a 943 913
a 943 914
a 943 915
a 943 916
a 943 917
a 943 918
a 943 919
a 943 920
a 943 921
a 943 922
a 943 923
a 943 924
a 943 925
a 943 926
a 943 927
a 943 928
a 943 929
a 943 930
a 943 861
a 943 931
a 943 932
a 943 933
a 943 934
a 943 935
a 943 936
a 943 937
a 943 938
a 943 939
a 943 940
a 943 941
a 943 942
a 943 944
a 943 945
a 943 946
a 943 947
a 943 948
a 943 949
a 943 950
a 943 951
a 943 952
a 943 953
a 944 875
a 944 876
a 944 877
a 944 878
a 944 879
a 944 880
a 944 881
a 944 882
a 944 883
a 944 884
a 944 885
a 944 886
a 944 887
a 944 888
a 944 889
a 944 890
a 944 891
a 944 892
a 944 893
a 944 894
a 944 895
a 944 896
a 944 897
a 944 898
a 944 899
a 944 900
a 944 901
a 944 902
a 944 903
a 944 904
a 944 905
a 944 906
a 944 907
a 944 908
a 944 909
a 944 910
a 944 911
a 944 912
a 944 913
a 944 914
a 944 915
a 944 916
a 944 917
a 944 918
a 944 919
a 944 920
a 944 921
a 944 922
a 944 923
a 944 924
a 944 925
a 944 926
a 944 927
a 944 928
a 944 929
a 944 930
a 944 861
a 944 931
a 944 932
a 944 933
a 944 934
a 944 935
a 944 936
a 944 937
a 944 938
a 944 939
a 944 940
a 944 941
a 944 942
a 944 943
a 944 945
a 944 946
a 944 947
a 944 1071
a 944 948
a 944 949
a 944 950
a 944 951
a 944 952
a 944 953
a 945 875
a 945 876
a 945 877
a 945 878
a 945 879
a 945 880
a 945 881
a 945 882
a 945 883
a 945 884
a 945 885
a 945 886
a 945 887
a 945 888
a 945 889
a 945 890
a 945 891
a 945 892
a 945 893
a 945 894
a 945 895
a 945 896
a 945 897
a 945 898
a 945 899
a 945 900
a 945 901
a 945 902
a 945 903
a 945 904
a 945 905
a 945 906
a 945 907
a 945 908
a 945 909
a 945 910
a 945 911
a 945 912
a 945 913
a 945 914
a 945 915
a 945 916
a 945 917
a 945 918
a 945 919
a 945 920
a 945 921
a 945 922
a 945 923
a 945 924
a 945 925
a 945 926
a 945 927
a 945 928
a 945 929
a 945 930
a 945 861
a 945 931
a 945 932
a 945 933
a 945 934
a 945 935
a 945 936
a 945 937
a 945 938
a 945 939
a 945 940
a 945 941
a 945 942
a 945 943
a 945 944
a 945 946
a 945 947
a 945 948
a 945 949
a 945 950
a 945 951
a 945 952
a 945 953
a 946 875
a 946 876
a 946 877
a 946 878
a 946 879
a 946 880
a 946 881
a 946 882
a 946 883
a 946 884
a 946 885
a 946 886
a 946 887
a 946 888
a 946 889
a 946 890
a 946 891
a 946 892
a 946 893
a 946 894
a 946 895
a 946 896
a 946 897
a 946 898
a 946 899
a 946 900
a 946 901
a 946 902
a 946 903
a 946 904
a 946 905
a 946 906
a 946 907
a 946 908
a 946 909
a 946 910
a 946 911
a 946 912
a 946 913
a 946 914
a 946 915
a 946 916
a 946 917
a 946 918
a 946 919
a 946 920
a 946 921
a 946 922
a 946 923
a 946 924
a 946 925
a 946 926
a 946 927
a 946 928
a 946 929
a 946 930
a 946 861
a 946 931
a 946 932
a 946 933
a 946 934
a 946 935
a 946 936
a 946 937
a 946 938
a 946 939
a 946 940
a 946 941
a 946 942
a 946 943
a 946 944
a 946 945
a 946 947
a 946 948
a 946 949
a 946 950
a 946 951
a 946 952
a 946 953
a 947 875
a 947 876
a 947 877
a 947 878
a 947 879
a 947 880
a 947 881
a 947 882
a 947 883
a 947 884
a 947 885
a 947 886
a 947 887
a 947 888
a 947 889
a 947 890
a 947 891
a 947 892
a 947 893
a 947 894
a 947 895
a 947 896
a 947 897
a 947 898
a 947 899
a 947 900
a 947 901
a 947 902
a 947 903
a 947 904
a 947 905
a 947 906
a 947 907
a 947 908
a 947 909
a 947 910
a 947 911
a 947 912
a 947 913
a 947 914
a 947 915
a 947 916
a 947 917
a 947 918
a 947 919
a 947 920
a 947 921
a 947 922
a 947 923
a 947 924
a 947 925
a 947 926
a 947 927
a 947 928
a 947 929
a 947 930
a 947 861
a 947 931
a 947 932
a 947 933
a 947 934
a 947 935
a 947 936
a 947 937
a 947 938
a 947 939
a 947 940
a 947 941
a 947 942
a 947 943
a 947 944
a 947 945
a 947 946
a 947 1071
a 947 948
a 947 949
a 947 950
a 947 951
a 947 952
a 947 953
a 948 875
a 948 876
a 948 877
a 948 878
a 948 879
a 948 880
a 948 881
a 948 882
a 948 883
a 948 884
a 948 885
a 948 886
a 948 887
a 948 888
a 948 889
a 948 890
a 948 891
a 948 892
a 948 893
a 948 894
a 948 895
a 948 896
a 948 897
a 948 898
a 948 899
a 948 900
a 948 901
a 948 902
a 948 903
a 948 904
a 948 905
a 948 906
a 948 907
a 948 908
a 948 909
a 948 910
a 948 911
a 948 912
a 948 913
a 948 914
a 948 915
a 948 916
a 948 917
a 948 918
a 948 919
a 948 920
a 948 921
a 948 922
a 948 923
a 948 924
a 948 925
a 948 926
a 948 927
a 948 928
a 948 929
a 948 930
a 948 861
a 948 931
a 948 932
a 948 933
a 948 934
a 948 935
a 948 936
a 948 937
a 948 938
a 948 939
a 948 940
a 948 941
a 948 942
a 948 943
a 948 944
a 948 945
a 948 946
a 948 947
a 948 949
a 948 950
a 948 951
a 948 952
a 948 953
a 949 875
a 949 876
a 949 877
a 949 878
a 949 879
a 949 880
a 949 881
a 949 882
a 949 883
a 949 884
a 949 885
a 949 886
a 949 887
a 949 888
a 949 889
a 949 890
a 949 891
a 949 892
a 949 893
a 949 894
a 949 895
a 949 896
a 949 897
a 949 898
a 949 899
a 949 900
a 949 901
a 949 902
a 949 903
a 949 904
a 949 905
a 949 906
a 949 907
a 949 908
a 949 909
a 949 910
a 949 911
a 949 912
a 949 913
a 949 914
a 949 915
a 949 916
a 949 917
a 949 918
a 949 919
a 949 920
a 949 921
a 949 922
a 949 923
a 949 924
a 949 925
a 949 926
a 949 927
a 949 928
a 949 929
a 949 930
a 949 861
a 949 931
a 949 932
a 949 933
a 949 934
a 949 935
a 949 936
a 949 937
a 949 938
a 949 939
a 949 940
a 949 941
a 949 942
a 949 943
a 949 944
a 949 945
a 949 946
a 949 947
a 949 948
a 949 950
a 949 951
a 949 952
a 949 953
a 950 875
a 950 876
a 950 877
a 950 878
a 950 879
a 950 880
a 950 881
a 950 882
a 950 883
a 950 884
a 950 885
a 950 886
a 950 887
a 950 888
a 950 889
a 950 890
a 950 891
a 950 892
a 950 893
a 950 894
a 950 895
a 950 896
a 950 897
a 950 898
a 950 899
a 950 900
a 950 901
a 950 902
a 950 903
a 950 904
a 950 905
a 950 906
a 950 907
a 950 908
a 950 909
a 950 910
a 950 911
a 950 912
a 950 913
a 950 914
a 950 915
a 950 916
a 950 917
a 950 918
a 950 919
a 950 920
a 950 921
a 950 922
a 950 923
a 950 924
a 950 925
a 950 926
a 950 927
a 950 928
a 950 929
a 950 930
a 950 861
a 950 931
a 950 932
a 950 933
a 950 934
a 950 935
a 950 936
a 950 937
a 950 938
a 950 939
a 950 940
a 950 941
a 950 942
a 950 943
a 950 944
a 950 945
a 950 946
a 950 947
a 950 948
a 950 949
a 950 951
a 950 952
a 950 953
a 951 875
a 951 876
a 951 877
a 951 878
a 951 879
a 951 880
a 951 881
a 951 882
a 951 883
a 951 884
a 951 885
a 951 886
a 951 887
a 951 888
a 951 889
a 951 890
a 951 891
a 951 892
a 951 893
a 951 894
a 951 895
a 951 896
a 951 897
a 951 898
a 951 899
a 951 900
a 951 901
a 951 902
a 951 903
a 951 904
a 951 905
a 951 906
a 951 907
a 951 908
a 951 909
a 951 910
a 951 911
a 951 912
a 951 913
a 951 914
a 951 915
a 951 916
a 951 917
a 951 918
a 951 919
a 951 920
a 951 921
a 951 922
a 951 923
a 951 924
a 951 925
a 951 926
a 951 927
a 951 928
a 951 929
a 951 930
a 951 861
a 951 931
a 951 932
a 951 933
a 951 934
a 951 935
a 951 936
a 951 937
a 951 938
a 951 939
a 951 940
a 951 941
a 951 942
a 951 943
a 951 944
a 951 945
a 951 946
a 951 947
a 951 948
a 951 949
a 951 950
a 951 952
a 951 953
a 952 875
a 952 876
a 952 877
a 952 878
a 952 879
a 952 880
a 952 881
a 952 882
a 952 883
a 952 884
a 952 885
a 952 886
a 952 887
a 952 888
a 952 889
a 952 890
a 952 891
a 952 892
a 952 893
a 952 894
a 952 895
a 952 896
a 952 897
a 952 898
a 952 899
a 952 900
a 952 901
a 952 902
a 952 903
a 952 904
a 952 905
a 952 906
a 952 907
a 952 908
a 952 909
a 952 910
a 952 911
a 952 912
a 952 913
a 952 914
a 952 915
a 952 916
a 952 917
a 952 918
a 952 919
a 952 920
a 952 921
a 952 922
a 952 923
a 952 924
a 952 925
a 952 926
a 952 927
a 952 928
a 952 929
a 952 930
a 952 861
a 952 931
a 952 932
a 952 933
a 952 934
a 952 935
a 952 936
a 952 937
a 952 938
a 952 939
a 952 940
a 952 941
a 952 942
a 952 943
a 952 944
a 952 945
a 952 946
a 952 947
a 952 948
a 952 949
a 952 950
a 952 951
a 952 953
a 953 875
a 953 876
a 953 877
a 953 878
a 953 879
a 953 880
a 953 881
a 953 882
a 953 883
a 953 884
a 953 885
a 953 886
a 953 887
a 953 888
a 953 889
a 953 890
a 953 891
a 953 892
a 953 893
a 953 894
a 953 895
a 953 896
a 953 897
a 953 898
a 953 899
a 953 900
a 953 901
a 953 902
a 953 903
a 953 904
a 953 905
a 953 906
a 953 907
a 953 908
a 953 909
a 953 910
a 953 911
a 953 912
a 953 913
a 953 914
a 953 915
a 953 916
a 953 917
a 953 918
a 953 919
a 953 920
a 953 921
a 953 922
a 953 923
a 953 924
a 953 925
a 953 926
a 953 927
a 953 928
a 953 929
a 953 930
a 953 861
a 953 931
a 953 932
a 953 933
a 953 934
a 953 935
a 953 936
a 953 937
a 953 938
a 953 939
a 953 940
a 953 941
a 953 942
a 953 943
a 953 944
a 953 945
a 953 946
a 953 947
a 953 948
a 953 949
a 953 950
a 953 951
a 953 1073
a 953 952
a 873 149
a 873 1074
a 1074 873
a 1074 1075
a 1074 1076
a 1074 1077
a 1075 1074
a 1075 1078
a 1075 1076
a 1075 1077
a 1075 1079
a 1076 1074
a 1076 1075
a 1076 874
a 1076 1077
a 1077 1074
a 1077 1075
a 1077 1078
a 1077 1076
a 1077 1079
a 1078 1075
a 1078 1080
a 1078 1077
a 1078 1079
a 1079 1075
a 1079 1078
a 1079 1077
a 1079 1081
a 1080 1078
a 1080 1082
a 1082 1080
a 1082 1083
a 1082 1084
a 1082 1085
a 1083 1082
a 1083 1086
a 1083 1084
a 1083 1085
a 1083 1087
a 1084 1082
a 1084 1083
a 1084 1081
a 1084 1085
a 1085 1082
a 1085 1083
a 1085 1086
a 1085 1084
a 1085 1087
a 1086 1083
a 1086 1088
a 1086 1085
a 1086 1087
a 1086 1089
a 1087 1083
a 1087 1086
a 1087 1088
a 1087 1085
a 1087 1089
a 1088 1086
a 1088 1090
a 1088 1087
a 1088 1089
a 1088 1091
a 1089 1086
a 1089 1088
a 1089 1090
a 1089 1087
a 1089 1091
a 1090 1088
a 1090 1092
a 1090 1089
a 1090 1091
a 1090 1093
a 1091 1088
a 1091 1090
a 1091 1092
a 1091 1089
a 1091 1093
a 1092 1090
a 1092 1094
a 1092 1091
a 1092 1093
a 1093 1090
a 1093 1092
a 1093 1091
a 1093 1095
a 1094 1092
a 1094 1096
a 1096 1094
a 1096 1097
a 1096 1098
a 1096 1099
a 1097 1096
a 1097 1100
a 1097 1098
a 1097 1099
a 1097 1101
a 1098 1096
a 1098 1097
a 1098 1095
a 1098 1099
a 1099 1096
a 1099 1097
a 1099 1100
a 1099 1098
a 1099 1101
a 1100 1097
a 1100 1102
a 1100 1099
a 1100 1101
a 1101 1097
a 1101 1100
a 1101 1099
a 1101 1103
a 1102 1100
a 1102 1104
a 1104 1102
a 1104 1105
a 1104 1106
a 1104 1107
a 1105 1104
a 1105 1108
a 1105 1106
a 1105 1107
a 1105 1109
a 1106 1104
a 1106 1105
a 1106 1103
a 1106 1107
a 1107 1104
a 1107 1105
a 1107 1108
a 1107 1106
a 1107 1109
a 1108 1105
a 1108 1110
a 1108 1107
a 1108 1109
a 1109 1105
a 1109 1108
a 1109 1107
a 1109 1111
a 1110 1108
a 1110 1112
a 1112 1110
a 1112 1113
a 1112 1114
a 1112 1115
a 1113 1112
a 1113 1116
a 1113 1114
a 1113 1115
a 1113 1117
a 1114 1112
a 1114 1113
a 1114 1111
a 1114 1115
a 1115 1112
a 1115 1113
a 1115 1116
a 1115 1114
a 1115 1117
a 1116 1113
a 1116 1118
a 1116 1115
a 1116 1117
a 1116 1119
a 1117 1113
a 1117 1116
a 1117 1118
a 1117 1115
a 1117 1119
a 1118 1116
a 1118 1120
a 1118 1117
a 1118 1119
a 1119 1116
a 1119 1118
a 1119 1117
a 1119 1121
a 1120 1118
a 1120 1122
a 1122 1120
a 1122 1123
a 1122 1124
a 1122 1125
a 1123 1122
a 1123 1126
a 1123 1124
a 1123 1125
a 1123 1127
a 1124 1122
a 1124 1123
a 1124 1121
a 1124 1125
a 1125 1122
a 1125 1123
a 1125 1126
a 1125 1124
a 1125 1127
a 1126 1123
a 1126 1128
a 1126 1125
a 1126 1127
a 1126 1129
a 1127 1123
a 1127 1126
a 1127 1128
a 1127 1125
a 1127 1129
a 1128 1126
a 1128 1130
a 1128 1127
a 1128 1129
a 1128 1131
a 1129 1126
a 1129 1128
a 1129 1130
a 1129 1127
a 1129 1131
a 1130 1128
a 1130 1132
a 1130 1129
a 1130 1131
a 1130 1133
a 1131 1128
a 1131 1130
a 1131 1132
a 1131 1129
a 1131 1133
a 1132 1130
a 1132 1134
a 1132 1131
a 1132 1133
a 1133 1130
a 1133 1132
a 1133 1131
a 1133 1135
a 1134 1132
a 1134 1135
a 1135 1134
a 1135 1133
a 874 151
a 874 1076
a 1081 1079
a 1081 1084
a 1095 1093
a 1095 1098
a 1103 1101
a 1103 1106
a 1111 1109
a 1111 1114
a 1121 1119
a 1121 1124
a 1040 881
a 1040 884
a 1040 908
a 1040 1136
a 1041 881
a 1042 881
a 1042 1137
a 1043 884
a 1043 908
a 1044 884
a 1045 891
a 1045 1046
a 1045 1047
a 1045 1138
a 1045 1139
a 1046 891
a 1046 1049
a 1046 1045
a 1046 1047
a 1046 1069
a 1046 1140
a 1047 891
a 1047 1045
a 1047 1046
a 1048 894
a 1048 1049
a 1048 1050
a 1049 894
a 1049 1048
a 1049 1050
a 1049 1046
a 1050 894
a 1050 1048
a 1050 1049
a 1051 897
a 1051 1052
a 1051 1053
a 1051 1141
a 1051 1142
a 1052 897
a 1052 1051
a 1052 1053
a 1053 897
a 1053 1051
a 1053 1052
a 1054 900
a 1054 1055
a 1054 1056
a 1054 1057
a 1054 1058
a 1055 900
a 1055 1054
a 1055 1056
a 1055 1057
a 1055 1058
a 1056 900
a 1056 1054
a 1056 1055
a 1056 1057
a 1056 1058
a 1057 900
a 1057 1054
a 1057 1055
a 1057 1056
a 1057 1058
a 1058 900
a 1058 1054
a 1058 1055
a 1058 1056
a 1058 1057
a 1058 1143
a 1059 904
a 1059 906
a 1059 1144
a 1144 1059
a 1144 1145
a 1144 1146
a 1144 1147
a 1060 908
a 1060 1145
a 1060 1061
a 1060 1062
a 1061 908
a 1061 1060
a 1061 1062
a 1062 908
a 1062 1060
a 1062 1061
a 1063 908
a 1064 908
a 1064 1137
a 1065 910
a 1065 1066
a 1066 912
a 1066 914
a 1066 916
a 1066 918
a 1066 920
a 1066 924
a 1066 931
a 1066 1148
a 1066 1065
a 1067 928
a 1067 1068
a 1067 1069
a 1067 1070
a 1067 1149
a 1067 1141
a 1068 928
a 1068 1067
a 1068 1069
a 1068 1070
a 1068 1150
a 1068 1138
a 1069 928
a 1069 1046
a 1069 1067
a 1069 1068
a 1069 1070
a 1070 928
a 1070 1067
a 1070 1068
a 1070 1069
a 1071 933
a 1071 937
a 1071 941
a 1071 944
a 1071 947
a 1071 1151
a 1072 935
a 1072 939
a 1072 1152
a 1153 1151
a 1151 1153
a 1151 1071
a 1145 1144
a 1145 1146
a 1145 1147
a 1145 1060
a 1146 1144
a 1146 1145
a 1146 1147
a 1147 1144
a 1147 1145
a 1147 1146
a 1147 1154
a 1154 1147
a 1154 1155
a 1155 1154
a 1156 1148
a 1156 1157
a 1148 1156
a 1148 1152
a 1148 1066
a 1157 1156
a 1157 1158
a 1152 1148
a 1152 1073
a 1152 1072
a 1073 1152
a 1073 953
a 1073 1159
a 1159 1073
a 1159 1143
a 1136 1040
a 1137 1042
a 1137 1064
a 1158 1157
a 1158 1160
a 1158 1161
a 1158 1162
a 1158 1163
a 1158 1164
a 1158 1165
a 1158 1166
a 1158 1167
a 1160 1158
a 1161 1158
a 1161 1162
a 1162 1158
a 1162 1161
a 1163 1158
a 1163 1168
a 1164 1158
a 1164 1168
a 1165 1158
a 1166 1158
a 1166 1169
a 1167 1158
a 1167 1169
a 1168 1163
a 1168 1164
a 1169 1166
a 1169 1167
a 1138 1045
a 1138 1068
a 1138 1150
a 1138 1139
a 1139 1045
a 1139 1138
a 1140 1046
a 1141 1051
a 1141 1067
a 1141 1149
a 1141 1142
a 1142 1051
a 1142 1141
a 1149 1067
a 1149 1141
a 1150 1068
a 1150 1138
a 1143 1058
a 1143 1159
a 1143 1170
a 1170 1143
a 1170 1171
a 1171 1170
a 1171 1172
a 1171 1173
a 1172 1171
a 1173 1171
a 1173 1174
a 1174 1173
