p sp 662 1812
a 1 2
a 1 3
a 2 1
a 2 4
a 2 5
a 3 1
a 3 6
a 7 4
a 7 8
a 7 9
a 4 7
a 4 2
a 8 7
a 8 10
a 8 11
a 8 12
a 9 7
a 9 13
a 9 14
a 9 15
a 16 17
a 16 18
a 17 16
a 17 19
a 18 16
a 18 20
a 21 22
a 21 23
a 22 21
a 22 24
a 23 21
a 23 25
a 10 26
a 10 8
a 26 10
a 26 27
a 28 29
a 28 30
a 29 28
a 29 31
a 30 28
a 30 32
a 30 33
a 34 35
a 34 36
a 35 34
a 35 37
a 35 38
a 36 34
a 36 39
a 40 41
a 40 42
a 40 43
a 40 44
a 40 45
a 40 46
a 41 40
a 41 47
a 42 40
a 42 48
a 43 40
a 43 49
a 43 44
a 44 40
a 44 43
a 44 45
a 44 50
a 44 51
a 45 40
a 45 44
a 46 40
a 46 52
a 53 54
a 53 55
a 53 56
a 53 57
a 54 53
a 54 58
a 55 53
a 55 59
a 56 53
a 56 60
a 56 61
a 57 53
a 57 62
a 57 63
a 64 65
a 64 27
a 65 64
a 65 66
a 65 67
a 65 68
a 65 69
a 27 64
a 27 70
a 27 26
a 27 71
a 72 73
a 72 74
a 73 72
a 73 75
a 73 76
a 73 77
a 73 78
a 74 72
a 74 79
a 80 81
a 80 82
a 81 80
a 81 83
a 82 80
a 82 84
a 82 85
a 82 86
a 82 87
a 79 74
a 79 88
a 88 79
a 88 89
a 88 90
a 88 91
a 88 92
a 88 15
a 93 94
a 93 95
a 93 96
a 93 97
a 93 62
a 94 93
a 94 98
a 95 93
a 95 99
a 96 93
a 96 100
a 97 93
a 97 101
a 97 102
a 97 103
a 62 93
a 62 57
a 62 103
a 104 105
a 104 106
a 105 104
a 105 107
a 106 104
a 106 108
a 106 109
a 106 110
a 106 111
a 106 112
a 106 113
a 106 114
a 115 116
a 115 33
a 116 115
a 116 117
a 33 115
a 33 30
a 33 118
a 33 119
a 120 121
a 120 77
a 121 120
a 121 122
a 121 112
a 77 120
a 77 73
a 123 99
a 123 124
a 99 123
a 99 125
a 99 95
a 99 126
a 124 123
a 124 61
a 66 65
a 66 117
a 117 66
a 117 116
a 127 128
a 127 129
a 128 127
a 128 130
a 128 131
a 128 132
a 128 133
a 128 134
a 129 127
a 129 135
a 136 137
a 136 138
a 137 136
a 137 139
a 138 136
a 138 140
a 141 20
a 141 142
a 20 141
a 20 6
a 20 83
a 20 18
a 20 143
a 20 144
a 20 145
a 142 141
a 142 86
a 98 94
a 98 146
a 75 73
a 75 147
a 76 73
a 76 122
a 76 113
a 78 73
a 78 148
a 78 149
a 78 150
a 78 15
a 78 151
a 78 114
a 78 152
a 153 154
a 153 155
a 154 153
a 154 156
a 154 157
a 154 158
a 155 153
a 155 159
a 139 137
a 139 160
a 139 161
a 139 162
a 163 11
a 163 164
a 11 163
a 11 8
a 164 163
a 164 107
a 165 166
a 165 167
a 166 165
a 166 156
a 167 165
a 167 168
a 169 170
a 169 85
a 170 169
a 170 171
a 85 169
a 85 82
a 172 140
a 172 173
a 172 174
a 140 172
a 140 138
a 173 172
a 173 175
a 174 172
a 174 176
a 174 177
a 174 178
a 179 180
a 179 31
a 180 179
a 180 118
a 31 179
a 31 29
a 31 181
a 6 20
a 6 3
a 83 20
a 83 81
a 143 20
a 143 182
a 144 20
a 144 183
a 145 20
a 145 184
a 145 13
a 145 185
a 145 186
a 145 187
a 188 185
a 185 188
a 185 145
a 185 189
a 185 186
a 185 190
a 191 192
a 191 193
a 192 191
a 192 194
a 193 191
a 193 195
a 193 111
a 193 196
a 193 197
a 108 195
a 108 106
a 195 108
a 195 193
a 47 41
a 47 198
a 52 199
a 52 46
a 199 52
a 199 200
a 70 27
a 70 86
a 86 70
a 86 142
a 86 82
a 201 202
a 201 160
a 202 201
a 202 203
a 202 175
a 160 201
a 160 139
a 204 205
a 205 204
a 205 206
a 205 60
a 205 207
a 205 63
a 206 205
a 206 208
a 208 206
a 208 209
a 208 58
a 208 146
a 130 210
a 130 128
a 130 211
a 130 212
a 210 130
a 210 213
a 211 130
a 211 214
a 211 212
a 211 215
a 211 216
a 212 130
a 212 211
a 37 35
a 37 217
a 38 35
a 38 218
a 38 219
a 38 220
a 38 221
a 109 222
a 109 106
a 222 109
a 222 91
a 125 223
a 125 99
a 223 125
a 223 100
a 58 54
a 58 208
a 224 225
a 224 226
a 225 224
a 225 227
a 225 228
a 225 229
a 225 230
a 226 224
a 226 231
a 232 24
a 232 233
a 24 232
a 24 22
a 233 232
a 233 234
a 233 5
a 233 235
a 233 236
a 234 237
a 234 233
a 237 234
a 237 238
a 239 240
a 240 239
a 240 241
a 240 242
a 240 243
a 240 244
a 156 166
a 156 245
a 156 246
a 156 154
a 156 247
a 248 249
a 248 250
a 249 248
a 249 251
a 249 197
a 249 252
a 249 253
a 249 254
a 250 248
a 250 107
a 171 209
a 171 170
a 171 32
a 171 255
a 209 171
a 209 208
a 32 171
a 32 30
a 255 171
a 255 71
a 107 105
a 107 256
a 107 164
a 107 257
a 107 250
a 168 258
a 168 259
a 168 167
a 168 50
a 168 260
a 258 168
a 258 251
a 259 168
a 50 168
a 50 157
a 50 44
a 260 168
a 260 261
a 260 262
a 245 156
a 245 159
a 159 245
a 159 155
a 110 106
a 214 211
a 214 215
a 215 214
a 215 263
a 215 211
a 215 264
a 265 67
a 265 266
a 67 265
a 67 65
a 266 265
a 266 118
a 267 194
a 267 268
a 194 267
a 194 269
a 194 192
a 194 270
a 194 148
a 268 267
a 268 252
a 271 272
a 272 271
a 272 273
a 272 274
a 272 275
a 272 276
a 39 36
a 39 277
a 39 278
a 39 279
a 280 281
a 280 200
a 281 280
a 281 282
a 281 283
a 281 284
a 281 285
a 200 280
a 200 199
a 200 286
a 200 283
a 200 198
a 200 287
a 213 210
a 213 288
a 161 139
a 161 263
a 162 139
a 162 289
a 162 290
a 162 291
a 131 128
a 131 292
a 292 131
a 292 293
a 132 128
a 132 294
a 294 132
a 294 295
a 48 42
a 48 296
a 296 48
a 296 297
a 296 298
a 296 49
a 296 299
a 296 300
a 297 301
a 297 296
a 301 297
a 301 302
a 269 303
a 269 194
a 269 304
a 269 305
a 303 269
a 304 269
a 304 147
a 305 269
a 305 306
a 133 128
a 133 264
a 134 128
a 134 289
a 134 307
a 218 38
a 218 102
a 102 218
a 102 97
a 308 309
a 309 308
a 309 310
a 309 311
a 298 296
a 298 312
a 312 298
a 312 313
a 84 277
a 84 82
a 277 84
a 277 39
a 91 222
a 91 88
a 306 305
a 306 314
a 314 306
a 314 315
a 310 309
a 310 316
a 316 310
a 316 231
a 183 317
a 183 144
a 317 183
a 317 278
a 318 319
a 319 318
a 319 320
a 319 321
a 319 322
a 295 286
a 295 294
a 286 295
a 286 200
a 323 324
a 324 323
a 324 325
a 324 326
a 324 327
a 328 329
a 329 328
a 329 330
a 329 331
a 329 332
a 60 56
a 60 205
a 182 143
a 182 333
a 333 182
a 333 334
a 19 17
a 19 25
a 175 173
a 175 202
a 203 202
a 203 335
a 217 37
a 336 337
a 336 288
a 337 336
a 337 313
a 288 336
a 288 282
a 288 338
a 288 339
a 288 213
a 135 335
a 135 129
a 335 135
a 335 227
a 335 203
a 335 293
a 335 340
a 341 342
a 342 341
a 342 343
a 342 273
a 342 274
a 342 344
a 198 47
a 198 200
a 59 55
a 59 126
a 122 112
a 122 76
a 122 121
a 112 122
a 112 121
a 112 106
a 246 156
a 246 345
a 247 156
a 247 346
a 347 348
a 347 257
a 348 347
a 348 92
a 257 347
a 257 107
a 207 181
a 207 205
a 181 207
a 181 31
a 157 154
a 157 50
a 270 194
a 270 251
a 148 194
a 148 78
a 148 349
a 148 315
a 148 262
a 227 225
a 227 335
a 350 345
a 350 351
a 345 350
a 345 246
a 351 350
a 351 251
a 302 301
a 302 339
a 339 302
a 339 288
a 339 284
a 311 309
a 311 230
a 311 352
a 311 332
a 49 43
a 49 296
a 68 65
a 68 256
a 69 65
a 69 353
a 69 354
a 69 150
a 69 355
a 263 215
a 263 161
a 71 27
a 71 255
a 251 258
a 251 351
a 251 249
a 251 270
a 251 356
a 251 357
a 358 359
a 359 358
a 359 360
a 359 361
a 256 68
a 256 107
a 313 312
a 313 337
a 111 106
a 111 193
a 147 304
a 147 75
a 100 96
a 100 223
a 100 101
a 299 296
a 299 158
a 158 299
a 158 154
a 278 317
a 278 39
a 300 296
a 300 362
a 300 363
a 300 51
a 279 39
a 279 364
a 279 221
a 365 241
a 241 365
a 241 240
a 241 366
a 241 367
a 241 244
a 216 211
a 216 290
a 216 368
a 216 369
a 238 237
a 238 370
a 370 238
a 370 371
a 370 372
a 25 373
a 25 19
a 25 23
a 25 374
a 373 25
a 373 334
a 373 375
a 374 25
a 374 376
a 264 215
a 264 133
a 377 327
a 327 377
a 327 324
a 327 372
a 356 251
a 356 253
a 356 357
a 357 251
a 357 356
a 118 180
a 118 266
a 118 33
a 282 281
a 282 288
a 113 76
a 113 106
a 92 348
a 92 88
a 89 88
a 89 12
a 12 89
a 12 8
a 378 379
a 379 378
a 379 360
a 379 380
a 379 381
a 379 361
a 379 177
a 379 382
a 101 97
a 101 100
a 103 97
a 103 62
a 103 221
a 376 235
a 376 374
a 235 376
a 235 233
a 228 225
a 228 231
a 229 225
a 230 225
a 230 311
a 230 340
a 230 322
a 5 2
a 5 233
a 196 193
a 338 288
a 383 367
a 367 383
a 367 325
a 367 326
a 367 241
a 367 366
a 367 384
a 367 275
a 367 385
a 367 243
a 90 88
a 90 386
a 386 90
a 386 387
a 388 330
a 330 388
a 330 329
a 330 366
a 330 349
a 330 262
a 389 231
a 231 389
a 231 390
a 231 226
a 231 228
a 231 316
a 390 231
a 126 59
a 126 99
a 252 268
a 252 249
a 146 98
a 146 220
a 146 208
a 293 292
a 293 335
a 51 44
a 51 261
a 51 300
a 284 339
a 284 281
a 283 281
a 283 200
a 285 281
a 285 369
a 197 249
a 197 193
a 253 249
a 253 356
a 254 249
a 254 262
a 61 56
a 61 124
a 391 243
a 243 391
a 243 240
a 243 367
a 243 371
a 243 372
a 334 373
a 334 333
a 375 373
a 375 186
a 392 393
a 393 392
a 393 360
a 393 394
a 393 361
a 393 178
a 340 335
a 340 230
a 340 395
a 119 33
a 119 354
a 119 63
a 219 38
a 219 87
a 220 38
a 220 146
a 221 38
a 221 103
a 221 279
a 87 219
a 87 82
a 396 349
a 349 396
a 349 148
a 349 330
a 349 315
a 15 88
a 15 9
a 15 78
a 397 372
a 372 397
a 372 325
a 372 326
a 372 370
a 372 327
a 372 243
a 372 186
a 372 398
a 372 236
a 387 386
a 387 242
a 387 384
a 387 399
a 315 314
a 315 148
a 315 349
a 315 262
a 287 200
a 287 261
a 287 363
a 287 369
a 287 322
a 287 307
a 287 400
a 401 321
a 321 401
a 321 402
a 321 319
a 403 177
a 177 403
a 177 174
a 177 379
a 404 244
a 244 404
a 244 240
a 244 241
a 244 405
a 244 149
a 63 205
a 63 57
a 63 406
a 63 119
a 236 233
a 236 372
a 407 190
a 190 407
a 190 364
a 190 185
a 190 187
a 114 106
a 114 78
a 114 408
a 114 150
a 409 331
a 331 409
a 331 320
a 331 410
a 331 329
a 331 411
a 331 276
a 412 332
a 332 412
a 332 329
a 332 311
a 13 9
a 13 145
a 14 9
a 343 413
a 343 414
a 343 415
a 343 342
a 413 343
a 414 343
a 414 416
a 414 275
a 415 343
a 415 417
a 415 418
a 419 380
a 380 419
a 380 379
a 420 421
a 421 420
a 421 411
a 149 78
a 149 244
a 150 78
a 150 69
a 150 422
a 150 114
a 151 78
a 151 423
a 152 78
a 152 405
a 176 424
a 176 174
a 176 289
a 176 425
a 176 426
a 176 427
a 424 176
a 424 381
a 289 176
a 289 402
a 289 162
a 289 134
a 289 290
a 289 428
a 289 429
a 289 395
a 425 176
a 425 427
a 425 430
a 426 176
a 426 431
a 426 432
a 427 176
a 427 425
a 427 322
a 427 433
a 381 424
a 381 379
a 381 434
a 178 174
a 178 394
a 178 435
a 178 436
a 178 393
a 178 437
a 178 395
a 178 382
a 402 289
a 402 321
a 290 289
a 290 162
a 290 216
a 428 289
a 429 289
a 395 289
a 395 340
a 395 178
a 395 352
a 184 145
a 184 438
a 186 145
a 186 185
a 186 375
a 186 371
a 186 399
a 186 372
a 187 145
a 187 353
a 187 190
a 438 184
a 438 439
a 438 440
a 438 441
a 442 273
a 442 398
a 273 442
a 273 272
a 273 342
a 273 275
a 398 442
a 398 422
a 398 443
a 398 372
a 275 273
a 275 272
a 275 414
a 275 367
a 423 408
a 423 151
a 408 423
a 408 114
a 444 274
a 444 344
a 274 444
a 274 272
a 274 342
a 344 444
a 344 445
a 344 342
a 344 361
a 344 434
a 344 446
a 242 240
a 242 447
a 242 387
a 261 260
a 261 51
a 261 287
a 262 260
a 262 148
a 262 330
a 262 254
a 262 315
a 262 431
a 416 414
a 276 272
a 276 418
a 276 331
a 448 422
a 448 449
a 422 448
a 422 150
a 422 443
a 422 398
a 422 431
a 422 450
a 449 448
a 449 451
a 449 452
a 449 453
a 449 454
a 449 433
a 320 319
a 320 331
a 291 162
a 291 455
a 362 300
a 362 456
a 456 362
a 456 457
a 307 134
a 307 287
a 307 458
a 410 331
a 459 446
a 446 459
a 446 344
a 322 319
a 322 230
a 322 287
a 322 427
a 322 400
a 325 324
a 325 367
a 325 372
a 326 324
a 326 367
a 326 372
a 445 417
a 445 418
a 445 344
a 417 445
a 417 415
a 418 445
a 418 415
a 418 460
a 418 276
a 346 247
a 346 461
a 352 311
a 352 395
a 352 462
a 353 69
a 353 187
a 354 69
a 354 119
a 355 69
a 355 463
a 360 359
a 360 379
a 360 393
a 361 359
a 361 379
a 361 460
a 361 393
a 361 344
a 394 464
a 394 393
a 394 178
a 464 394
a 464 435
a 464 436
a 406 63
a 406 465
a 465 406
a 465 466
a 465 467
a 189 185
a 364 279
a 364 190
a 363 300
a 363 287
a 366 241
a 366 367
a 366 330
a 447 242
a 384 468
a 384 367
a 384 387
a 468 384
a 405 244
a 405 152
a 368 216
a 369 216
a 369 285
a 369 287
a 371 370
a 371 243
a 371 186
a 411 421
a 411 460
a 411 331
a 435 464
a 435 178
a 436 464
a 436 178
a 430 425
a 430 469
a 430 470
a 431 426
a 431 422
a 431 262
a 432 426
a 432 470
a 434 381
a 434 344
a 434 471
a 382 379
a 382 178
a 382 472
a 385 367
a 443 422
a 443 473
a 443 398
a 443 450
a 443 474
a 450 422
a 450 443
a 450 452
a 450 467
a 450 475
a 460 361
a 460 411
a 460 418
a 437 178
a 473 443
a 474 443
a 474 439
a 399 186
a 399 387
a 400 287
a 400 322
a 400 458
a 471 434
a 471 476
a 471 477
a 433 427
a 433 449
a 458 307
a 458 400
a 458 478
a 478 458
a 472 382
a 462 352
a 462 479
a 479 462
a 480 481
a 480 482
a 481 480
a 481 483
a 481 484
a 481 485
a 482 480
a 482 486
a 482 487
a 488 489
a 488 490
a 489 488
a 489 491
a 490 488
a 490 492
a 490 493
a 490 484
a 494 495
a 494 496
a 495 494
a 495 497
a 495 498
a 495 499
a 496 494
a 496 500
a 496 501
a 496 502
a 496 503
a 504 505
a 504 506
a 505 504
a 505 507
a 506 504
a 506 508
a 509 510
a 509 491
a 510 509
a 510 511
a 510 466
a 510 512
a 510 513
a 510 514
a 510 515
a 491 509
a 491 489
a 491 516
a 492 490
a 492 517
a 492 518
a 517 492
a 517 519
a 518 492
a 518 520
a 521 522
a 521 523
a 522 521
a 522 524
a 523 521
a 523 501
a 523 525
a 451 449
a 451 526
a 451 527
a 451 528
a 451 529
a 451 530
a 451 531
a 452 449
a 452 532
a 452 454
a 452 450
a 453 449
a 453 533
a 453 534
a 454 449
a 454 452
a 454 532
a 454 535
a 526 451
a 526 536
a 527 451
a 527 537
a 528 451
a 528 538
a 528 539
a 528 529
a 528 540
a 528 531
a 529 451
a 529 528
a 530 451
a 530 541
a 531 451
a 531 542
a 531 543
a 531 544
a 531 545
a 531 546
a 531 528
a 455 291
a 455 547
a 455 548
a 455 549
a 550 513
a 550 551
a 513 550
a 513 510
a 551 550
a 551 552
a 551 553
a 554 493
a 554 555
a 493 554
a 493 490
a 555 554
a 555 556
a 538 528
a 538 557
a 557 538
a 557 503
a 558 541
a 558 559
a 541 558
a 541 500
a 541 530
a 559 558
a 559 501
a 542 531
a 536 500
a 536 526
a 536 560
a 536 535
a 536 503
a 500 536
a 500 541
a 500 496
a 500 560
a 500 535
a 560 536
a 560 500
a 560 561
a 535 536
a 535 500
a 535 501
a 535 454
a 535 503
a 503 536
a 503 501
a 503 496
a 503 557
a 503 535
a 547 562
a 547 563
a 547 549
a 547 455
a 562 547
a 562 564
a 563 547
a 549 547
a 549 455
a 507 505
a 507 565
a 507 512
a 507 475
a 507 566
a 567 568
a 567 569
a 568 567
a 568 570
a 568 571
a 568 553
a 568 572
a 568 573
a 569 567
a 569 552
a 574 575
a 575 574
a 575 483
a 570 568
a 570 576
a 570 561
a 576 570
a 561 570
a 561 502
a 561 560
a 457 545
a 457 564
a 457 548
a 457 577
a 457 578
a 457 456
a 545 457
a 545 531
a 564 457
a 564 562
a 548 457
a 548 455
a 577 457
a 577 544
a 578 457
a 578 571
a 486 579
a 486 482
a 486 580
a 579 486
a 579 524
a 580 486
a 580 524
a 581 552
a 581 582
a 552 581
a 552 583
a 552 569
a 552 467
a 552 551
a 582 581
a 582 463
a 582 466
a 565 584
a 565 556
a 565 511
a 565 585
a 565 507
a 584 565
a 556 565
a 556 555
a 511 565
a 511 510
a 585 565
a 586 499
a 586 524
a 499 586
a 499 495
a 524 586
a 524 579
a 524 522
a 524 580
a 583 552
a 583 587
a 583 466
a 583 572
a 583 588
a 587 583
a 587 514
a 466 583
a 466 589
a 466 582
a 466 510
a 466 465
a 572 583
a 572 568
a 588 583
a 501 559
a 501 590
a 501 497
a 501 496
a 501 591
a 501 535
a 501 503
a 501 523
a 590 501
a 590 525
a 497 501
a 497 495
a 591 501
a 539 528
a 571 568
a 571 546
a 571 461
a 571 578
a 553 568
a 553 551
a 573 568
a 589 520
a 589 466
a 520 589
a 520 518
a 498 495
a 592 461
a 592 593
a 461 592
a 461 571
a 461 346
a 593 592
a 593 594
a 508 506
a 508 502
a 595 463
a 595 467
a 463 595
a 463 355
a 463 596
a 463 582
a 463 467
a 463 597
a 467 595
a 467 552
a 467 463
a 467 450
a 467 465
a 467 515
a 546 571
a 546 531
a 525 590
a 525 523
a 543 531
a 483 481
a 483 575
a 502 508
a 502 496
a 502 561
a 596 594
a 596 463
a 594 596
a 594 593
a 544 577
a 544 531
a 484 481
a 484 490
a 485 481
a 485 598
a 514 587
a 514 510
a 597 463
a 597 515
a 532 452
a 532 454
a 512 510
a 512 507
a 537 527
a 537 540
a 487 599
a 487 482
a 599 487
a 540 537
a 540 528
a 516 600
a 516 491
a 600 516
a 533 453
a 533 601
a 534 453
a 534 601
a 534 602
a 534 603
a 534 604
a 519 598
a 519 517
a 598 519
a 598 485
a 515 510
a 515 467
a 515 566
a 515 597
a 475 450
a 475 507
a 566 507
a 566 515
a 605 606
a 605 607
a 606 605
a 606 608
a 606 609
a 606 610
a 606 611
a 607 605
a 607 612
a 607 613
a 607 614
a 607 609
a 607 615
a 607 610
a 616 613
a 616 609
a 613 616
a 613 607
a 613 610
a 613 617
a 609 616
a 609 606
a 609 607
a 618 619
a 618 620
a 619 618
a 619 621
a 619 622
a 619 623
a 619 624
a 619 620
a 620 618
a 620 625
a 620 619
a 620 623
a 620 626
a 620 627
a 608 606
a 608 628
a 610 606
a 610 613
a 610 607
a 611 606
a 611 629
a 628 608
a 628 602
a 628 470
a 628 604
a 628 629
a 628 630
a 631 625
a 625 631
a 625 623
a 625 620
a 612 632
a 612 633
a 612 614
a 612 439
a 612 607
a 612 441
a 632 612
a 632 634
a 632 440
a 633 612
a 633 439
a 633 635
a 614 612
a 614 607
a 614 636
a 439 612
a 439 633
a 439 474
a 439 637
a 439 438
a 441 612
a 441 438
a 634 632
a 634 638
a 440 632
a 440 638
a 440 438
a 617 613
a 617 622
a 617 639
a 617 640
a 617 641
a 635 633
a 635 642
a 635 477
a 621 622
a 621 643
a 621 619
a 621 644
a 622 621
a 622 643
a 622 619
a 622 623
a 622 645
a 622 624
a 622 644
a 622 617
a 643 621
a 643 622
a 644 621
a 644 622
a 623 622
a 623 625
a 623 619
a 623 620
a 645 622
a 624 622
a 624 619
a 646 647
a 646 476
a 647 646
a 647 648
a 476 646
a 476 471
a 649 650
a 649 641
a 650 649
a 650 651
a 641 649
a 641 652
a 641 617
a 636 614
a 636 652
a 636 653
a 654 653
a 653 654
a 653 636
a 652 655
a 652 641
a 652 636
a 655 652
a 655 656
a 655 651
a 648 647
a 648 638
a 648 642
a 656 657
a 656 655
a 656 658
a 657 656
a 657 639
a 658 656
a 658 659
a 651 650
a 651 655
a 477 471
a 477 635
a 638 648
a 638 634
a 638 440
a 639 657
a 639 617
a 637 439
a 642 648
a 642 635
a 626 620
a 626 630
a 630 626
a 630 470
a 630 660
a 630 629
a 630 628
a 640 617
a 615 607
a 629 611
a 629 602
a 629 470
a 629 660
a 629 630
a 629 628
a 659 661
a 659 658
a 661 659
a 627 620
a 469 430
a 470 430
a 470 432
a 470 662
a 470 604
a 470 629
a 470 630
a 470 628
a 601 533
a 601 660
a 601 603
a 601 534
a 660 601
a 660 602
a 660 662
a 660 604
a 660 629
a 660 630
a 603 601
a 603 662
a 603 604
a 603 534
a 602 662
a 602 660
a 602 604
a 602 534
a 602 629
a 602 628
a 662 602
a 662 470
a 662 660
a 662 603
a 662 604
a 604 602
a 604 662
a 604 470
a 604 660
a 604 603
a 604 534
a 604 628
