p sp 496 1968
a 1 2
a 1 3
a 1 4
a 1 5
a 1 6
a 1 7
a 1 8
a 1 9
a 1 10
a 2 1
a 2 3
a 2 11
a 2 12
a 13 14
a 13 15
a 13 16
a 13 17
a 14 13
a 14 18
a 14 15
a 14 19
a 14 20
a 14 21
a 14 22
a 23 24
a 24 23
a 24 15
a 24 25
a 26 27
a 26 28
a 26 29
a 26 30
a 27 26
a 27 28
a 27 29
a 27 31
a 27 32
a 27 33
a 34 35
a 34 36
a 34 37
a 34 38
a 35 34
a 35 39
a 35 40
a 35 36
a 41 42
a 41 43
a 41 44
a 42 41
a 45 46
a 46 45
a 46 47
a 43 48
a 43 44
a 43 41
a 48 43
a 3 49
a 3 2
a 3 1
a 3 50
a 3 51
a 49 3
a 49 52
a 49 53
a 49 54
a 49 51
a 55 56
a 56 55
a 56 57
a 56 58
a 56 47
a 56 59
a 60 61
a 61 60
a 61 62
a 28 27
a 28 26
a 28 63
a 28 64
a 28 65
a 28 25
a 66 67
a 66 68
a 67 66
a 67 40
a 67 69
a 67 70
a 67 71
a 72 73
a 72 74
a 72 75
a 72 76
a 73 72
a 73 77
a 78 79
a 78 80
a 79 78
a 40 67
a 40 35
a 52 49
a 77 73
a 81 82
a 81 83
a 81 84
a 81 85
a 81 86
a 81 87
a 81 4
a 82 81
a 82 84
a 82 83
a 82 88
a 82 89
a 82 90
a 91 7
a 7 91
a 7 5
a 7 92
a 7 4
a 7 93
a 7 1
a 7 6
a 7 94
a 84 39
a 84 82
a 84 95
a 84 81
a 84 96
a 84 97
a 39 84
a 39 98
a 39 35
a 99 100
a 100 99
a 100 101
a 100 102
a 100 59
a 100 103
a 44 43
a 44 41
a 44 104
a 105 106
a 105 107
a 105 108
a 106 105
a 107 105
a 107 109
a 107 110
a 107 111
a 112 113
a 112 114
a 112 115
a 113 112
a 113 116
a 113 117
a 113 118
a 114 112
a 115 112
a 5 7
a 5 6
a 5 93
a 5 1
a 92 7
a 92 119
a 120 121
a 120 122
a 120 123
a 120 124
a 120 125
a 121 120
a 53 126
a 53 49
a 53 51
a 126 53
a 51 53
a 51 49
a 51 3
a 51 50
a 54 49
a 54 116
a 116 54
a 116 113
a 15 24
a 15 13
a 15 14
a 50 127
a 50 3
a 50 51
a 50 128
a 50 129
a 50 130
a 50 131
a 50 132
a 50 133
a 50 134
a 50 135
a 127 50
a 127 136
a 137 138
a 137 139
a 138 137
a 138 25
a 138 140
a 141 16
a 16 141
a 16 13
a 25 138
a 25 140
a 25 24
a 25 28
a 25 142
a 140 138
a 140 25
a 140 143
a 140 144
a 29 26
a 29 27
a 145 118
a 118 145
a 118 117
a 118 146
a 118 113
a 118 147
a 62 61
a 62 148
a 62 149
a 62 150
a 62 151
a 62 152
a 62 153
a 62 154
a 62 155
a 62 156
a 62 157
a 62 158
a 85 159
a 85 160
a 85 81
a 85 83
a 159 85
a 159 160
a 160 85
a 160 159
a 74 72
a 57 56
a 18 14
a 161 162
a 162 161
a 162 163
a 162 164
a 162 165
a 162 166
a 162 167
a 162 168
a 162 169
a 162 170
a 162 171
a 172 173
a 173 172
a 173 108
a 173 174
a 173 175
a 173 110
a 173 176
a 98 39
a 69 67
a 69 177
a 108 178
a 108 173
a 108 179
a 108 105
a 108 180
a 178 108
a 119 92
a 177 69
a 181 182
a 182 181
a 182 183
a 184 17
a 17 184
a 17 13
a 17 76
a 185 186
a 185 187
a 186 185
a 186 187
a 186 188
a 186 189
a 190 191
a 190 149
a 190 148
a 190 151
a 190 192
a 190 193
a 190 194
a 190 195
a 191 190
a 191 196
a 191 149
a 191 156
a 191 151
a 197 198
a 197 199
a 197 68
a 197 200
a 197 201
a 197 202
a 197 203
a 197 204
a 197 88
a 197 205
a 197 206
a 197 207
a 198 197
a 198 199
a 198 201
a 198 202
a 198 203
a 198 208
a 198 209
a 198 210
a 199 197
a 199 200
a 199 198
a 199 96
a 199 201
a 199 203
a 199 202
a 163 168
a 163 164
a 163 170
a 163 166
a 163 21
a 163 211
a 163 165
a 163 167
a 163 169
a 163 162
a 168 163
a 168 164
a 168 170
a 168 211
a 168 165
a 168 162
a 168 166
a 168 167
a 168 169
a 168 212
a 164 163
a 164 168
a 164 170
a 164 21
a 164 211
a 164 213
a 164 166
a 164 162
a 164 165
a 164 167
a 164 169
a 170 163
a 170 164
a 170 168
a 170 166
a 170 211
a 170 165
a 170 162
a 170 167
a 170 169
a 170 71
a 214 215
a 214 216
a 214 209
a 214 217
a 214 218
a 214 219
a 214 210
a 214 220
a 214 221
a 215 214
a 215 222
a 215 221
a 215 217
a 148 62
a 148 223
a 148 150
a 148 151
a 148 154
a 148 190
a 148 224
a 148 225
a 148 153
a 148 226
a 148 123
a 148 149
a 148 157
a 148 155
a 148 227
a 148 228
a 148 229
a 21 164
a 21 163
a 21 213
a 21 165
a 21 167
a 21 14
a 200 199
a 200 68
a 200 197
a 200 96
a 200 201
a 200 202
a 200 203
a 200 204
a 156 225
a 156 155
a 156 154
a 156 230
a 156 62
a 156 191
a 156 231
a 156 232
a 156 193
a 156 153
a 156 152
a 156 233
a 225 156
a 225 154
a 225 226
a 225 155
a 225 148
a 225 150
a 225 157
a 225 227
a 225 234
a 225 228
a 225 235
a 225 193
a 225 153
a 146 117
a 146 236
a 146 118
a 146 237
a 117 146
a 117 118
a 117 113
a 238 189
a 238 239
a 238 240
a 238 241
a 238 242
a 238 243
a 189 238
a 189 244
a 189 186
a 154 225
a 154 62
a 154 148
a 154 156
a 154 226
a 154 150
a 154 157
a 154 151
a 231 150
a 231 156
a 231 232
a 231 245
a 231 193
a 231 246
a 231 247
a 150 231
a 150 62
a 150 224
a 150 148
a 150 157
a 150 151
a 150 154
a 150 155
a 150 149
a 150 225
a 150 234
a 150 227
a 150 229
a 201 202
a 201 68
a 201 197
a 201 200
a 201 198
a 201 199
a 201 203
a 201 204
a 201 248
a 202 201
a 202 203
a 202 197
a 202 200
a 202 198
a 202 199
a 202 204
a 249 250
a 249 251
a 249 252
a 249 253
a 250 249
a 250 251
a 250 252
a 250 253
a 251 249
a 251 250
a 251 252
a 251 253
a 254 255
a 254 256
a 255 254
a 257 258
a 257 259
a 257 260
a 257 261
a 257 262
a 258 257
a 258 260
a 258 262
a 259 257
a 259 260
a 259 263
a 259 264
a 259 261
a 259 262
a 259 265
a 259 266
a 260 257
a 260 259
a 260 261
a 260 267
a 260 258
a 260 268
a 260 263
a 260 264
a 260 262
a 260 269
a 260 266
a 260 270
a 260 271
a 203 202
a 203 197
a 203 200
a 203 198
a 203 201
a 203 272
a 203 199
a 203 204
a 273 274
a 273 275
a 273 276
a 273 277
a 273 278
a 273 4
a 274 273
a 274 275
a 274 279
a 274 280
a 274 276
a 274 277
a 274 278
a 166 170
a 166 163
a 166 211
a 166 164
a 166 165
a 166 162
a 166 168
a 166 169
a 166 167
a 166 265
a 151 153
a 151 223
a 151 62
a 151 148
a 151 157
a 151 150
a 151 149
a 151 190
a 151 224
a 151 193
a 151 154
a 151 155
a 151 191
a 151 123
a 151 10
a 151 192
a 151 194
a 153 151
a 153 62
a 153 281
a 153 282
a 153 155
a 153 148
a 153 193
a 153 9
a 153 10
a 153 156
a 153 225
a 134 135
a 134 128
a 134 129
a 134 283
a 134 130
a 134 131
a 134 132
a 134 50
a 134 133
a 135 134
a 135 128
a 135 129
a 135 283
a 135 130
a 135 131
a 135 132
a 135 50
a 135 133
a 284 285
a 284 286
a 284 37
a 284 287
a 285 284
a 285 288
a 285 289
a 285 286
a 285 290
a 285 291
a 286 284
a 286 291
a 286 288
a 286 285
a 123 223
a 123 292
a 123 293
a 123 151
a 123 148
a 123 120
a 123 192
a 223 123
a 223 294
a 223 148
a 223 151
a 223 157
a 292 123
a 293 123
a 293 149
a 293 295
a 293 296
a 143 140
a 144 297
a 144 298
a 144 299
a 144 300
a 144 140
a 297 144
a 297 298
a 297 299
a 149 10
a 149 62
a 149 293
a 149 191
a 149 190
a 149 151
a 149 150
a 149 148
a 149 192
a 10 149
a 10 193
a 10 151
a 10 153
a 10 1
a 10 9
a 252 250
a 252 251
a 252 253
a 252 249
a 252 301
a 252 302
a 253 252
a 253 249
a 253 250
a 253 251
a 303 304
a 304 303
a 304 139
a 305 64
a 64 305
a 64 63
a 64 306
a 64 65
a 64 28
a 275 274
a 275 276
a 275 273
a 276 275
a 276 273
a 276 176
a 276 175
a 276 274
a 276 307
a 276 278
a 289 308
a 289 309
a 289 310
a 289 207
a 289 311
a 289 312
a 289 285
a 289 290
a 289 291
a 289 88
a 308 289
a 308 310
a 308 311
a 308 312
a 308 88
a 309 289
a 309 208
a 309 313
a 309 291
a 310 289
a 310 308
a 310 311
a 207 289
a 207 311
a 207 217
a 207 205
a 207 197
a 311 289
a 311 308
a 311 217
a 311 310
a 311 207
a 311 312
a 311 314
a 311 88
a 311 89
a 311 315
a 263 264
a 263 259
a 263 268
a 263 260
a 263 262
a 264 263
a 264 259
a 264 260
a 264 262
a 264 265
a 264 261
a 268 263
a 268 261
a 268 267
a 268 260
a 268 316
a 187 186
a 187 185
a 68 200
a 68 204
a 68 201
a 68 197
a 68 66
a 68 261
a 204 68
a 204 197
a 204 200
a 204 201
a 204 203
a 204 202
a 128 131
a 128 133
a 128 132
a 128 50
a 128 134
a 128 130
a 128 135
a 128 129
a 131 128
a 131 129
a 131 130
a 131 133
a 131 132
a 131 50
a 131 134
a 131 135
a 133 128
a 133 129
a 133 130
a 133 131
a 133 132
a 133 50
a 133 134
a 133 135
a 132 128
a 132 129
a 132 130
a 132 131
a 132 133
a 132 50
a 132 134
a 132 135
a 130 128
a 130 129
a 130 131
a 130 133
a 130 132
a 130 50
a 130 134
a 130 135
a 129 128
a 129 131
a 129 133
a 129 132
a 129 50
a 129 134
a 129 130
a 129 283
a 129 135
a 317 290
a 317 288
a 290 317
a 290 291
a 290 288
a 290 289
a 290 88
a 290 285
a 290 318
a 290 319
a 288 317
a 288 210
a 288 219
a 288 290
a 288 205
a 288 89
a 288 291
a 288 286
a 288 285
a 288 88
a 111 320
a 111 321
a 111 107
a 111 109
a 111 322
a 320 111
a 320 104
a 320 321
a 320 323
a 320 174
a 320 324
a 320 175
a 320 176
a 320 325
a 321 111
a 321 320
a 321 326
a 321 104
a 321 323
a 321 327
a 321 328
a 329 330
a 330 329
a 330 331
a 330 332
a 330 333
a 330 334
a 330 335
a 330 336
a 239 241
a 239 243
a 239 238
a 239 240
a 241 239
a 241 240
a 241 238
a 241 242
a 241 337
a 243 239
a 243 240
a 243 238
a 240 239
a 240 241
a 240 243
a 240 238
a 240 338
a 240 339
a 279 277
a 279 274
a 279 280
a 279 242
a 279 340
a 279 341
a 277 279
a 277 280
a 277 273
a 277 274
a 280 279
a 280 277
a 280 274
a 280 342
a 280 208
a 280 340
a 280 341
a 343 176
a 343 344
a 176 343
a 176 174
a 176 344
a 176 276
a 176 345
a 176 175
a 176 307
a 176 110
a 176 324
a 176 320
a 176 173
a 176 300
a 344 343
a 344 176
a 344 97
a 344 346
a 344 347
a 174 345
a 174 176
a 174 175
a 174 320
a 174 324
a 174 173
a 345 174
a 345 175
a 345 176
a 175 174
a 175 276
a 175 345
a 175 176
a 175 110
a 175 307
a 175 324
a 175 320
a 175 22
a 175 348
a 175 173
a 333 265
a 333 330
a 333 349
a 333 334
a 333 350
a 333 336
a 265 333
a 265 166
a 265 334
a 265 349
a 265 264
a 265 351
a 265 259
a 352 353
a 352 354
a 353 352
a 353 195
a 353 354
a 354 352
a 354 353
a 354 355
a 354 195
a 354 356
a 354 357
a 36 34
a 36 35
a 36 287
a 211 163
a 211 166
a 211 165
a 211 167
a 211 168
a 211 169
a 211 170
a 211 164
a 165 163
a 165 211
a 165 213
a 165 164
a 165 166
a 165 162
a 165 168
a 165 167
a 165 169
a 165 21
a 165 170
a 165 337
a 167 163
a 167 211
a 167 164
a 167 165
a 167 21
a 167 162
a 167 168
a 167 170
a 167 169
a 167 166
a 169 163
a 169 211
a 169 164
a 169 165
a 169 162
a 169 168
a 169 170
a 169 166
a 169 167
a 283 129
a 283 134
a 283 135
a 294 223
a 294 157
a 157 223
a 157 294
a 157 150
a 157 151
a 157 224
a 157 154
a 157 62
a 157 357
a 157 358
a 157 148
a 157 225
a 157 227
a 4 7
a 4 1
a 4 359
a 4 94
a 4 273
a 4 81
a 4 83
a 332 331
a 332 330
a 331 332
a 331 330
a 152 62
a 152 245
a 152 195
a 152 246
a 152 247
a 152 232
a 152 156
a 152 360
a 179 108
a 179 180
a 179 361
a 179 362
a 180 179
a 180 108
a 245 358
a 245 246
a 245 247
a 245 357
a 245 363
a 245 152
a 245 227
a 245 231
a 245 87
a 245 360
a 358 245
a 358 364
a 358 246
a 358 247
a 358 357
a 358 363
a 358 157
a 246 245
a 246 152
a 246 358
a 246 247
a 246 357
a 246 363
a 246 232
a 246 231
a 246 360
a 247 245
a 247 152
a 247 246
a 247 358
a 247 357
a 247 363
a 247 192
a 247 232
a 247 365
a 247 231
a 247 360
a 357 245
a 357 246
a 357 247
a 357 358
a 357 363
a 357 366
a 357 157
a 357 354
a 363 245
a 363 246
a 363 247
a 363 357
a 363 358
a 195 353
a 195 152
a 195 354
a 195 367
a 195 190
a 195 302
a 224 150
a 224 148
a 224 151
a 224 157
a 224 193
a 368 227
a 227 368
a 227 245
a 227 148
a 227 225
a 227 157
a 227 87
a 227 150
a 227 369
a 281 370
a 281 155
a 281 153
a 281 371
a 370 281
a 370 155
a 155 281
a 155 156
a 155 230
a 155 225
a 155 282
a 155 370
a 155 153
a 155 62
a 155 150
a 155 151
a 155 372
a 155 148
a 155 193
a 155 228
a 155 233
a 155 229
a 364 358
a 373 374
a 373 375
a 373 376
a 374 373
a 213 165
a 213 164
a 213 21
a 377 19
a 19 377
a 19 20
a 19 14
a 301 378
a 301 252
a 301 379
a 301 355
a 378 301
a 380 381
a 380 59
a 381 380
a 381 59
a 59 380
a 59 381
a 59 101
a 59 102
a 59 100
a 59 103
a 59 56
a 59 47
a 208 309
a 208 313
a 208 312
a 208 382
a 208 220
a 208 198
a 208 280
a 208 342
a 313 309
a 313 210
a 313 383
a 313 208
a 313 384
a 291 309
a 291 290
a 291 286
a 291 89
a 291 288
a 291 312
a 291 289
a 291 285
a 291 385
a 96 200
a 96 199
a 96 84
a 96 386
a 96 97
a 222 215
a 222 217
a 221 215
a 221 219
a 221 217
a 221 387
a 221 388
a 221 210
a 221 216
a 221 389
a 221 214
a 390 391
a 390 392
a 391 390
a 391 124
a 89 291
a 89 288
a 89 88
a 89 82
a 89 318
a 89 315
a 89 311
a 20 19
a 20 14
a 63 64
a 63 65
a 63 28
a 65 63
a 65 64
a 65 28
a 75 72
a 104 320
a 104 323
a 104 325
a 104 321
a 104 44
a 104 326
a 323 104
a 323 320
a 323 393
a 323 325
a 323 394
a 323 312
a 323 321
a 86 395
a 86 396
a 86 81
a 395 86
a 31 27
a 230 156
a 230 155
a 226 225
a 226 154
a 226 148
a 226 80
a 193 10
a 193 224
a 193 151
a 193 153
a 193 232
a 193 156
a 193 231
a 193 155
a 193 192
a 193 190
a 193 225
a 355 354
a 355 397
a 355 398
a 355 301
a 102 399
a 102 101
a 102 59
a 102 100
a 102 103
a 399 102
a 400 97
a 97 400
a 97 401
a 97 261
a 97 316
a 97 344
a 97 84
a 97 96
a 97 88
a 97 402
a 97 403
a 404 405
a 404 406
a 404 407
a 405 404
a 405 406
a 405 407
a 406 404
a 406 405
a 406 407
a 406 408
a 407 404
a 407 405
a 407 406
a 83 81
a 83 409
a 83 410
a 83 82
a 83 85
a 83 361
a 83 87
a 83 4
a 409 83
a 409 411
a 409 87
a 22 342
a 22 412
a 22 175
a 22 14
a 342 22
a 342 280
a 342 372
a 342 208
a 412 22
a 236 146
a 242 238
a 242 241
a 242 279
a 242 139
a 219 221
a 219 210
a 219 288
a 219 205
a 219 218
a 219 217
a 219 216
a 219 214
a 219 389
a 219 209
a 219 220
a 219 413
a 32 27
a 32 414
a 414 32
a 414 415
a 414 416
a 94 417
a 94 4
a 94 7
a 417 94
a 417 361
a 76 17
a 76 72
a 47 46
a 47 56
a 47 59
a 196 191
a 216 418
a 216 419
a 216 214
a 216 219
a 216 210
a 216 218
a 216 221
a 216 209
a 216 220
a 216 383
a 216 217
a 418 216
a 418 419
a 419 216
a 419 418
a 88 217
a 88 197
a 88 89
a 88 312
a 88 289
a 88 311
a 88 82
a 88 97
a 88 290
a 88 288
a 88 318
a 88 308
a 88 315
a 88 420
a 217 88
a 217 219
a 217 311
a 217 207
a 217 221
a 217 214
a 217 222
a 217 218
a 217 389
a 217 215
a 217 216
a 217 210
a 244 189
a 282 155
a 282 153
a 210 384
a 210 383
a 210 313
a 210 218
a 210 219
a 210 209
a 210 288
a 210 205
a 210 387
a 210 216
a 210 214
a 210 221
a 210 220
a 210 217
a 210 421
a 210 198
a 384 210
a 384 383
a 384 313
a 384 209
a 383 210
a 383 209
a 383 313
a 383 384
a 383 216
a 383 421
a 218 210
a 218 219
a 218 216
a 218 214
a 218 217
a 218 209
a 209 210
a 209 383
a 209 384
a 209 214
a 209 421
a 209 218
a 209 216
a 209 219
a 209 198
a 205 210
a 205 288
a 205 219
a 205 207
a 205 197
a 109 107
a 109 422
a 109 71
a 109 111
a 110 107
a 110 175
a 110 307
a 110 176
a 110 173
a 401 97
a 261 97
a 261 257
a 261 259
a 261 260
a 261 268
a 261 316
a 261 267
a 261 68
a 261 264
a 261 58
a 261 262
a 316 97
a 316 261
a 316 267
a 316 423
a 316 268
a 306 64
a 272 203
a 267 261
a 267 268
a 267 260
a 267 316
a 314 386
a 314 95
a 314 206
a 314 311
a 386 314
a 386 95
a 386 424
a 386 96
a 386 206
a 95 314
a 95 386
a 95 84
a 425 9
a 425 367
a 9 425
a 9 153
a 9 1
a 9 10
a 372 147
a 372 342
a 372 155
a 372 426
a 147 372
a 147 118
a 307 276
a 307 175
a 307 176
a 307 110
a 393 323
a 415 414
a 415 416
a 416 415
a 416 414
a 427 428
a 428 427
a 428 429
a 428 37
a 428 183
a 262 258
a 262 260
a 262 264
a 262 259
a 262 263
a 262 261
a 262 257
a 262 430
a 262 271
a 122 120
a 122 431
a 33 27
a 312 220
a 312 289
a 312 208
a 312 382
a 312 308
a 312 311
a 312 323
a 312 88
a 312 291
a 312 420
a 220 312
a 220 382
a 220 208
a 220 214
a 220 219
a 220 210
a 220 216
a 325 104
a 325 323
a 325 320
a 287 36
a 287 284
a 287 37
a 298 144
a 298 297
a 298 299
a 299 144
a 299 297
a 299 298
a 382 312
a 382 208
a 382 220
a 70 67
a 70 71
a 71 70
a 71 67
a 71 109
a 71 432
a 71 170
a 324 174
a 324 320
a 324 175
a 324 176
a 429 428
a 192 190
a 192 247
a 192 367
a 192 123
a 192 149
a 192 193
a 192 151
a 387 210
a 387 221
a 387 433
a 278 273
a 278 276
a 278 274
a 206 314
a 206 197
a 206 424
a 206 87
a 206 386
a 392 390
a 171 434
a 171 162
a 434 171
a 101 103
a 101 100
a 101 59
a 101 102
a 103 101
a 103 102
a 103 100
a 103 59
a 410 83
a 80 78
a 80 256
a 80 226
a 6 5
a 6 1
a 6 7
a 93 5
a 93 7
a 435 436
a 435 437
a 436 435
a 436 437
a 436 438
a 436 439
a 436 440
a 436 441
a 437 435
a 437 436
a 437 438
a 437 440
a 361 417
a 361 179
a 361 83
a 326 321
a 326 442
a 326 443
a 326 444
a 326 104
a 367 192
a 367 425
a 367 195
a 367 445
a 359 4
a 232 247
a 232 152
a 232 193
a 232 156
a 232 231
a 232 246
a 232 446
a 212 168
a 442 326
a 442 447
a 443 326
a 394 376
a 394 323
a 376 394
a 376 373
a 448 356
a 448 449
a 356 448
a 356 354
a 356 449
a 450 337
a 337 450
a 337 241
a 337 165
a 124 391
a 124 451
a 124 120
a 124 125
a 124 452
a 453 454
a 453 455
a 453 228
a 453 456
a 453 457
a 453 12
a 454 453
a 454 458
a 449 448
a 449 269
a 449 356
a 269 449
a 269 270
a 269 260
a 379 446
a 379 301
a 446 379
a 446 232
a 334 265
a 334 333
a 334 336
a 334 330
a 37 34
a 37 183
a 37 428
a 37 284
a 37 287
a 256 80
a 256 254
a 433 387
a 433 302
a 433 459
a 433 460
a 366 357
a 366 461
a 366 462
a 441 463
a 441 464
a 441 440
a 441 465
a 441 466
a 441 436
a 463 441
a 58 56
a 58 261
a 348 444
a 348 175
a 348 340
a 348 467
a 444 348
a 444 467
a 444 326
a 422 109
a 422 468
a 469 470
a 470 469
a 470 471
a 467 444
a 467 348
a 467 340
a 183 37
a 183 182
a 183 428
a 341 472
a 341 279
a 341 280
a 472 341
a 439 438
a 439 436
a 439 473
a 438 439
a 438 473
a 438 474
a 438 437
a 438 436
a 300 144
a 300 176
a 295 293
a 296 293
a 296 194
a 475 476
a 475 322
a 476 475
a 139 242
a 139 304
a 139 137
a 139 477
a 477 139
a 365 247
a 396 86
a 349 38
a 349 333
a 349 265
a 38 349
a 38 34
a 451 124
a 451 125
a 125 451
a 125 120
a 125 124
a 478 479
a 479 478
a 479 302
a 479 480
a 270 269
a 270 260
a 340 279
a 340 280
a 340 348
a 340 467
a 338 240
a 338 322
a 339 240
a 339 481
a 351 265
a 346 344
a 346 347
a 347 344
a 347 346
a 482 480
a 480 482
a 480 398
a 480 479
a 336 334
a 336 330
a 336 333
a 388 221
a 483 271
a 271 483
a 271 260
a 271 262
a 87 245
a 87 81
a 87 484
a 87 206
a 87 227
a 87 409
a 87 83
a 408 406
a 408 460
a 408 459
a 460 408
a 460 433
a 30 26
a 30 445
a 362 179
a 411 409
a 464 441
a 464 465
a 464 466
a 188 186
a 302 479
a 302 433
a 302 252
a 302 459
a 302 195
a 461 366
a 462 366
a 462 485
a 462 486
a 462 371
a 389 219
a 389 217
a 389 221
a 375 373
a 397 355
a 397 465
a 426 372
a 447 442
a 447 487
a 487 447
a 335 330
a 248 201
a 8 1
a 455 453
a 455 228
a 228 453
a 228 455
a 228 148
a 228 457
a 228 225
a 228 155
a 228 456
a 228 458
a 421 209
a 421 210
a 421 383
a 431 122
a 398 480
a 398 355
a 237 146
a 350 333
a 424 386
a 424 206
a 488 445
a 445 488
a 445 30
a 445 367
a 452 124
a 423 316
a 90 82
a 473 474
a 473 438
a 473 439
a 474 473
a 474 438
a 234 225
a 234 489
a 234 150
a 459 433
a 459 408
a 459 302
a 459 490
a 402 97
a 489 234
a 432 71
a 266 259
a 266 260
a 403 97
a 403 471
a 403 491
a 11 492
a 11 2
a 492 11
a 413 219
a 484 87
a 471 403
a 471 470
a 471 491
a 491 403
a 491 471
a 430 262
a 456 458
a 456 493
a 456 228
a 456 453
a 456 457
a 458 456
a 458 454
a 458 228
a 440 437
a 440 441
a 440 436
a 12 2
a 12 453
a 12 457
a 142 25
a 142 494
a 327 321
a 494 142
a 369 227
a 136 127
a 318 89
a 318 88
a 318 290
a 495 466
a 466 495
a 466 465
a 466 464
a 466 441
a 194 190
a 194 151
a 194 296
a 322 475
a 322 338
a 322 111
a 465 464
a 465 397
a 465 466
a 465 441
a 158 62
a 315 89
a 315 311
a 315 420
a 315 88
a 485 462
a 485 371
a 481 339
a 328 321
a 360 245
a 360 246
a 360 247
a 360 152
a 493 456
a 233 156
a 233 155
a 457 228
a 457 453
a 457 456
a 457 12
a 235 225
a 468 422
a 385 291
a 420 312
a 420 315
a 420 88
a 486 462
a 229 148
a 229 155
a 229 150
a 229 496
a 496 229
a 371 485
a 371 462
a 371 281
a 319 290
a 490 459
