p sp 39 170
a 7 1
a 7 2
a 7 6
a 7 8
a 7 9
a 7 11
a 7 12
a 7 13
a 7 35
a 7 39
a 1 8
a 1 11
a 1 12
a 1 13
a 1 22
a 1 23
a 1 34
a 1 35
a 1 37
a 1 39
a 8 2
a 8 9
a 8 10
a 8 20
a 8 21
a 8 22
a 8 23
a 8 24
a 8 35
a 8 38
a 8 39
a 11 2
a 11 19
a 11 35
a 11 36
a 11 39
a 12 2
a 12 19
a 12 26
a 12 35
a 12 36
a 12 38
a 12 39
a 13 2
a 13 35
a 13 36
a 13 38
a 13 39
a 22 2
a 22 27
a 22 28
a 22 30
a 22 31
a 22 32
a 22 33
a 22 35
a 22 36
a 22 38
a 22 39
a 23 2
a 23 30
a 23 32
a 23 33
a 23 35
a 23 36
a 23 38
a 23 39
a 34 5
a 34 37
a 35 2
a 35 5
a 35 6
a 35 9
a 35 10
a 35 36
a 35 37
a 37 4
a 39 2
a 39 3
a 39 4
a 39 5
a 39 6
a 39 9
a 39 10
a 39 14
a 39 15
a 39 16
a 39 17
a 39 18
a 39 19
a 39 20
a 39 21
a 39 24
a 39 25
a 39 26
a 39 27
a 39 28
a 39 29
a 39 30
a 39 31
a 39 32
a 39 33
a 2 9
a 2 36
a 9 10
a 9 36
a 36 3
a 36 4
a 36 10
a 36 14
a 36 15
a 36 16
a 36 17
a 36 18
a 36 19
a 36 20
a 36 21
a 36 24
a 36 25
a 36 26
a 36 27
a 36 28
a 36 29
a 36 30
a 36 31
a 36 32
a 36 33
a 14 3
a 14 25
a 14 26
a 14 27
a 14 28
a 14 29
a 3 15
a 3 16
a 3 17
a 3 18
a 15 19
a 15 25
a 15 26
a 15 27
a 15 28
a 15 29
a 16 19
a 16 27
a 17 4
a 18 19
a 18 25
a 18 26
a 18 27
a 18 29
a 18 32
a 6 5
a 20 38
a 21 33
a 21 38
a 24 38
a 38 19
a 38 25
a 38 26
a 38 27
a 38 28
a 38 29
a 38 30
a 38 31
a 38 32
a 38 33
a 19 33
a 27 30
a 32 31
