p sp 761 1029
a 245 1
a 245 19
a 245 26
a 245 139
a 245 170
a 245 345
a 245 439
a 245 528
a 245 603
a 245 659
a 245 736
a 245 753
a 1 512
a 512 4
a 512 10
a 512 15
a 512 43
a 512 49
a 512 50
a 512 81
a 512 213
a 512 228
a 512 239
a 512 273
a 512 393
a 512 527
a 512 562
a 512 657
a 209 2
a 209 302
a 209 725
a 2 255
a 255 77
a 255 686
a 520 3
a 520 134
a 520 137
a 520 157
a 520 158
a 520 430
a 520 521
a 520 639
a 520 657
a 520 686
a 520 711
a 520 728
a 520 761
a 493 5
a 493 25
a 493 83
a 493 87
a 493 99
a 493 121
a 493 160
a 493 220
a 493 277
a 493 312
a 493 393
a 493 507
a 493 598
a 493 612
a 493 639
a 493 661
a 493 671
a 493 695
a 493 696
a 493 734
a 483 6
a 483 95
a 483 143
a 55 7
a 7 279
a 7 358
a 7 503
a 7 686
a 7 735
a 279 452
a 279 583
a 279 604
a 358 67
a 358 91
a 358 124
a 358 141
a 358 158
a 358 180
a 358 181
a 358 200
a 358 243
a 358 252
a 358 253
a 358 295
a 358 302
a 358 303
a 358 351
a 358 353
a 358 402
a 358 477
a 358 494
a 358 567
a 358 669
a 358 673
a 358 693
a 358 735
a 358 755
a 503 599
a 686 46
a 686 120
a 686 158
a 686 172
a 686 289
a 686 383
a 686 397
a 686 408
a 686 419
a 686 521
a 686 536
a 686 579
a 686 587
a 686 599
a 686 623
a 686 693
a 686 696
a 686 735
a 735 141
a 735 171
a 735 180
a 735 286
a 735 336
a 735 347
a 735 351
a 735 547
a 735 567
a 735 620
a 735 623
a 735 728
a 11 8
a 8 25
a 25 34
a 25 306
a 25 373
a 25 492
a 25 528
a 25 640
a 25 750
a 378 9
a 378 56
a 378 84
a 378 105
a 378 142
a 378 193
a 378 228
a 378 256
a 378 271
a 378 296
a 378 409
a 378 462
a 378 610
a 378 611
a 378 624
a 9 409
a 9 644
a 409 12
a 409 56
a 409 105
a 409 191
a 409 250
a 409 293
a 409 361
a 409 411
a 409 496
a 409 569
a 409 588
a 409 610
a 409 630
a 409 644
a 22 10
a 22 88
a 22 171
a 22 192
a 22 280
a 22 315
a 22 357
a 22 377
a 22 397
a 22 491
a 22 494
a 22 677
a 22 761
a 10 94
a 10 144
a 10 152
a 10 223
a 10 228
a 10 233
a 10 248
a 10 280
a 10 285
a 10 441
a 10 464
a 10 542
a 10 572
a 10 580
a 10 606
a 10 618
a 10 651
a 10 703
a 10 708
a 10 728
a 10 737
a 10 761
a 144 618
a 223 158
a 223 672
a 223 688
a 228 93
a 228 135
a 228 158
a 228 220
a 228 393
a 228 425
a 228 435
a 228 513
a 228 535
a 228 565
a 228 572
a 228 577
a 228 595
a 228 618
a 280 393
a 441 651
a 441 693
a 572 135
a 572 176
a 606 720
a 618 346
a 618 362
a 618 499
a 618 741
a 651 137
a 651 399
a 651 435
a 651 480
a 651 509
a 651 643
a 651 661
a 651 687
a 651 692
a 651 705
a 708 397
a 708 657
a 708 691
a 728 18
a 728 77
a 728 181
a 728 329
a 728 461
a 728 508
a 728 561
a 728 623
a 728 693
a 728 756
a 737 385
a 737 749
a 761 42
a 761 69
a 761 72
a 761 171
a 761 226
a 761 273
a 761 291
a 761 298
a 761 521
a 761 600
a 761 740
a 250 12
a 250 17
a 250 201
a 250 257
a 250 423
a 250 588
a 300 13
a 300 15
a 300 545
a 300 585
a 300 661
a 300 679
a 300 693
a 90 14
a 90 28
a 90 265
a 90 288
a 90 324
a 90 371
a 90 529
a 90 693
a 90 712
a 14 693
a 693 77
a 693 99
a 693 158
a 693 161
a 693 211
a 693 252
a 693 284
a 693 288
a 693 297
a 693 330
a 693 351
a 693 417
a 693 440
a 693 475
a 693 478
a 693 514
a 693 538
a 693 544
a 693 564
a 693 571
a 693 589
a 693 645
a 693 676
a 693 684
a 15 506
a 15 509
a 15 533
a 509 145
a 509 206
a 509 308
a 509 498
a 509 514
a 533 184
a 533 448
a 61 16
a 61 120
a 16 586
a 586 158
a 586 229
a 586 361
a 586 525
a 374 20
a 20 397
a 20 548
a 397 21
a 397 31
a 397 33
a 397 137
a 397 149
a 397 157
a 397 189
a 397 192
a 397 337
a 397 376
a 397 377
a 397 419
a 397 472
a 397 485
a 397 532
a 397 536
a 397 538
a 397 540
a 397 623
a 397 657
a 397 707
a 21 534
a 171 133
a 171 157
a 171 232
a 171 335
a 171 605
a 171 636
a 357 281
a 377 149
a 377 222
a 377 375
a 377 419
a 377 536
a 494 307
a 677 552
a 677 628
a 281 23
a 27 24
a 24 360
a 24 414
a 24 429
a 24 477
a 414 674
a 429 137
a 429 463
a 477 157
a 477 186
a 477 350
a 477 524
a 373 184
a 750 125
a 750 140
a 750 147
a 750 234
a 750 458
a 750 470
a 750 550
a 750 722
a 26 391
a 93 29
a 93 362
a 29 106
a 29 685
a 137 30
a 137 37
a 137 39
a 137 71
a 137 74
a 137 80
a 137 131
a 137 136
a 137 138
a 137 168
a 137 194
a 137 238
a 137 264
a 137 268
a 137 275
a 137 286
a 137 304
a 137 362
a 137 393
a 137 403
a 137 437
a 137 449
a 137 515
a 137 521
a 137 525
a 137 539
a 137 549
a 137 557
a 137 581
a 137 639
a 137 701
a 137 706
a 137 759
a 30 561
a 272 31
a 272 143
a 272 428
a 31 518
a 31 553
a 518 229
a 76 32
a 76 153
a 76 162
a 76 225
a 76 615
a 76 656
a 521 35
a 521 72
a 521 98
a 521 156
a 521 158
a 521 196
a 521 219
a 521 249
a 521 341
a 521 410
a 521 442
a 521 443
a 521 657
a 521 674
a 718 36
a 718 316
a 718 562
a 37 342
a 37 554
a 342 164
a 342 286
a 558 38
a 558 366
a 558 415
a 558 670
a 558 690
a 54 40
a 54 184
a 54 267
a 54 338
a 54 457
a 54 538
a 40 86
a 40 261
a 40 457
a 40 514
a 86 159
a 86 200
a 86 246
a 86 556
a 261 541
a 514 126
a 514 142
a 514 158
a 514 177
a 514 538
a 514 623
a 657 41
a 657 50
a 657 138
a 657 158
a 657 165
a 657 221
a 657 252
a 657 485
a 657 536
a 657 551
a 657 557
a 657 560
a 657 639
a 47 44
a 47 307
a 47 444
a 158 45
a 158 51
a 158 77
a 158 108
a 158 110
a 158 124
a 158 139
a 158 154
a 158 159
a 158 180
a 158 229
a 158 241
a 158 340
a 158 351
a 158 367
a 158 370
a 158 505
a 158 516
a 158 566
a 158 567
a 158 568
a 158 590
a 158 623
a 158 669
a 158 689
a 307 103
a 307 482
a 155 48
a 155 60
a 155 150
a 155 244
a 155 426
a 155 435
a 155 473
a 155 546
a 155 614
a 155 667
a 155 729
a 132 50
a 132 351
a 132 461
a 50 461
a 461 52
a 461 203
a 461 238
a 461 459
a 461 460
a 461 502
a 461 623
a 203 52
a 52 238
a 238 334
a 238 438
a 238 459
a 238 472
a 238 505
a 238 623
a 238 711
a 552 53
a 552 72
a 184 64
a 184 163
a 184 174
a 184 262
a 184 269
a 184 276
a 184 290
a 184 319
a 184 413
a 184 474
a 184 629
a 184 682
a 184 731
a 338 697
a 538 697
a 216 56
a 56 400
a 56 610
a 610 254
a 531 57
a 57 623
a 623 151
a 623 159
a 623 349
a 623 388
a 623 490
a 623 537
a 623 639
a 623 707
a 62 58
a 62 587
a 58 92
a 58 390
a 58 426
a 58 523
a 58 587
a 390 309
a 390 426
a 390 471
a 426 587
a 587 65
a 587 229
a 587 292
a 587 364
a 587 445
a 587 458
a 587 741
a 190 59
a 190 72
a 190 381
a 351 63
a 351 67
a 351 77
a 351 139
a 351 230
a 351 259
a 351 310
a 351 379
a 351 420
a 351 568
a 351 637
a 458 65
a 458 127
a 458 229
a 458 292
a 458 639
a 458 664
a 277 66
a 277 352
a 277 649
a 66 482
a 482 103
a 482 305
a 482 317
a 482 331
a 482 721
a 482 742
a 77 67
a 77 124
a 77 129
a 77 169
a 77 181
a 77 252
a 77 326
a 77 478
a 77 547
a 77 568
a 77 620
a 77 665
a 77 754
a 67 180
a 180 567
a 551 68
a 551 122
a 551 169
a 551 252
a 551 270
a 551 465
a 551 652
a 68 747
a 130 69
a 69 488
a 488 744
a 419 70
a 419 497
a 419 536
a 419 639
a 70 459
a 72 395
a 395 744
a 362 73
a 516 75
a 153 631
a 162 104
a 615 136
a 615 210
a 615 501
a 656 141
a 124 169
a 124 607
a 129 567
a 169 243
a 169 252
a 169 478
a 169 485
a 169 489
a 169 559
a 169 560
a 252 122
a 252 642
a 478 122
a 478 134
a 478 141
a 478 199
a 478 295
a 547 242
a 547 243
a 547 302
a 547 511
a 547 625
a 547 707
a 568 299
a 620 141
a 620 754
a 665 663
a 754 286
a 159 78
a 159 200
a 159 229
a 159 384
a 159 450
a 159 505
a 159 555
a 78 183
a 78 334
a 78 438
a 183 652
a 334 116
a 334 175
a 334 438
a 334 467
a 334 711
a 334 719
a 334 758
a 438 332
a 646 79
a 646 428
a 696 82
a 696 168
a 696 399
a 504 85
a 504 500
a 200 317
a 556 714
a 212 89
a 212 328
a 89 328
a 328 380
a 328 484
a 328 597
a 328 634
a 328 716
a 324 712
a 529 627
a 354 91
a 320 95
a 320 143
a 202 96
a 202 673
a 560 97
a 560 142
a 560 263
a 560 655
a 412 98
a 98 600
a 98 639
a 639 229
a 639 472
a 639 584
a 639 591
a 639 702
a 639 741
a 639 759
a 707 100
a 707 214
a 707 270
a 707 495
a 707 698
a 707 700
a 229 101
a 229 179
a 229 431
a 229 433
a 229 526
a 229 537
a 229 578
a 229 658
a 229 705
a 229 731
a 229 751
a 179 102
a 296 105
a 105 588
a 588 113
a 626 107
a 626 490
a 681 109
a 681 485
a 681 517
a 681 709
a 110 291
a 110 632
a 110 653
a 291 231
a 653 173
a 653 616
a 139 111
a 139 148
a 139 333
a 139 355
a 139 486
a 139 596
a 139 603
a 139 635
a 139 663
a 139 672
a 139 724
a 111 420
a 420 663
a 122 112
a 122 283
a 112 427
a 436 114
a 436 193
a 436 619
a 393 115
a 393 128
a 393 182
a 393 236
a 393 278
a 393 294
a 393 432
a 393 473
a 393 661
a 393 678
a 393 680
a 393 732
a 298 117
a 117 321
a 321 744
a 666 118
a 666 141
a 666 215
a 666 282
a 666 647
a 666 699
a 652 119
a 652 730
a 119 730
a 204 123
a 204 208
a 123 208
a 123 386
a 123 530
a 123 633
a 208 435
a 208 530
a 567 455
a 135 527
a 135 723
a 138 557
a 168 418
a 275 365
a 275 398
a 275 563
a 275 608
a 286 638
a 515 366
a 549 650
a 557 247
a 557 314
a 759 325
a 355 217
a 596 663
a 663 301
a 724 197
a 724 274
a 218 141
a 141 368
a 141 543
a 141 594
a 198 142
a 142 485
a 142 573
a 485 369
a 485 570
a 485 654
a 485 659
a 694 146
a 694 619
a 149 536
a 536 359
a 536 394
a 536 454
a 435 156
a 435 383
a 435 676
a 667 343
a 166 156
a 156 383
a 156 593
a 383 323
a 157 240
a 157 602
a 157 634
a 157 748
a 505 733
a 566 453
a 669 379
a 384 578
a 384 722
a 609 165
a 609 408
a 421 167
a 421 661
a 243 302
a 243 466
a 243 479
a 335 601
a 266 172
a 266 404
a 172 510
a 205 173
a 205 230
a 205 401
a 174 236
a 174 392
a 392 617
a 519 176
a 447 177
a 447 424
a 260 178
a 178 356
a 178 591
a 178 704
a 356 224
a 591 210
a 591 287
a 704 322
a 704 348
a 704 481
a 704 713
a 276 574
a 276 629
a 276 738
a 290 237
a 474 683
a 682 476
a 375 185
a 185 757
a 186 524
a 455 187
a 595 188
a 595 258
a 595 575
a 381 251
a 381 318
a 381 456
a 207 193
a 348 195
a 348 322
a 274 197
a 201 396
a 201 423
a 230 401
a 302 416
a 311 227
a 311 313
a 433 526
a 537 578
a 705 363
a 751 487
a 231 522
a 305 235
a 472 405
a 468 239
a 239 469
a 239 662
a 239 668
a 239 743
a 659 359
a 278 661
a 661 313
a 661 613
a 661 676
a 289 720
a 720 325
a 720 389
a 720 717
a 339 292
a 312 660
a 312 710
a 312 715
a 312 746
a 744 387
a 744 451
a 322 434
a 322 481
a 327 325
a 325 621
a 410 341
a 369 344
a 349 752
a 350 576
a 359 540
a 741 372
a 741 582
a 460 382
a 471 446
a 654 406
a 654 497
a 654 726
a 713 407
a 408 622
a 674 739
a 582 422
a 676 714
a 502 641
a 648 470
a 683 592
a 683 727
a 490 675
a 500 571
a 599 760
a 691 745
