p sp 332 4252
a 1 2
a 1 3
a 1 4
a 2 1
a 2 3
a 2 4
a 3 2
a 3 1
a 3 4
a 3 5
a 3 6
a 4 2
a 4 1
a 4 7
a 4 3
a 4 8
a 4 9
a 4 10
a 4 11
a 4 12
a 4 13
a 4 14
a 4 5
a 4 15
a 4 16
a 4 17
a 4 18
a 4 19
a 4 20
a 4 21
a 4 22
a 4 6
a 4 23
a 4 24
a 4 25
a 4 26
a 4 27
a 4 28
a 4 29
a 4 30
a 8 7
a 8 4
a 7 8
a 7 4
a 5 3
a 5 4
a 5 31
a 5 32
a 5 33
a 5 34
a 5 35
a 5 6
a 6 3
a 6 4
a 6 5
a 6 33
a 6 35
a 6 36
a 6 37
a 6 38
a 6 39
a 6 40
a 6 41
a 6 42
a 6 43
a 6 44
a 6 45
a 6 23
a 6 24
a 6 46
a 6 47
a 6 48
a 6 49
a 6 50
a 6 51
a 6 25
a 6 26
a 6 52
a 6 53
a 6 54
a 6 27
a 6 55
a 6 56
a 6 57
a 6 58
a 6 59
a 6 60
a 6 61
a 6 62
a 6 63
a 6 64
a 6 65
a 6 28
a 6 66
a 6 67
a 6 68
a 6 69
a 6 70
a 6 71
a 6 29
a 6 72
a 6 73
a 6 74
a 6 75
a 6 76
a 6 77
a 6 78
a 6 30
a 6 79
a 10 9
a 10 4
a 10 11
a 9 10
a 9 4
a 9 11
a 11 9
a 11 10
a 11 4
a 11 80
a 11 81
a 11 82
a 11 83
a 11 84
a 11 85
a 11 86
a 11 87
a 11 88
a 11 89
a 11 90
a 12 4
a 12 31
a 13 4
a 13 14
a 14 4
a 14 13
a 15 4
a 16 4
a 16 19
a 17 4
a 17 18
a 18 4
a 18 17
a 19 4
a 19 16
a 19 20
a 20 4
a 20 19
a 20 22
a 21 4
a 21 22
a 22 4
a 22 20
a 22 21
a 23 4
a 23 36
a 23 38
a 23 6
a 23 39
a 23 41
a 23 42
a 23 43
a 23 44
a 23 45
a 23 91
a 23 92
a 23 24
a 23 46
a 23 47
a 23 48
a 23 93
a 23 94
a 23 25
a 23 95
a 23 26
a 23 54
a 23 27
a 23 96
a 23 58
a 23 59
a 23 61
a 23 64
a 23 65
a 23 28
a 23 66
a 23 67
a 23 70
a 23 71
a 23 29
a 23 72
a 23 73
a 23 74
a 23 75
a 23 76
a 23 77
a 24 4
a 24 97
a 24 98
a 24 99
a 24 38
a 24 100
a 24 6
a 24 101
a 24 102
a 24 103
a 24 104
a 24 105
a 24 106
a 24 23
a 24 107
a 24 108
a 24 109
a 24 110
a 24 111
a 24 112
a 24 50
a 24 113
a 24 114
a 24 51
a 24 115
a 24 25
a 24 26
a 24 116
a 24 117
a 24 52
a 24 118
a 24 53
a 24 119
a 24 120
a 24 27
a 24 121
a 24 55
a 24 56
a 24 57
a 24 122
a 24 123
a 24 124
a 24 125
a 24 58
a 24 126
a 24 60
a 24 127
a 24 61
a 24 62
a 24 128
a 24 63
a 24 64
a 24 129
a 24 65
a 24 28
a 24 66
a 24 130
a 24 67
a 24 68
a 24 69
a 24 131
a 24 71
a 24 29
a 24 72
a 24 73
a 24 74
a 24 75
a 24 76
a 24 132
a 24 133
a 24 77
a 24 134
a 24 135
a 24 136
a 24 137
a 24 138
a 24 78
a 24 30
a 25 4
a 25 6
a 25 23
a 25 24
a 25 139
a 25 107
a 25 140
a 25 112
a 25 141
a 25 142
a 25 50
a 25 113
a 25 114
a 25 143
a 25 144
a 25 51
a 25 115
a 25 26
a 25 116
a 25 52
a 25 145
a 25 146
a 25 53
a 25 120
a 25 147
a 25 27
a 25 121
a 25 55
a 25 148
a 25 56
a 25 57
a 25 149
a 25 123
a 25 124
a 25 125
a 25 58
a 25 126
a 25 150
a 25 60
a 25 127
a 25 61
a 25 62
a 25 128
a 25 63
a 25 129
a 25 28
a 25 151
a 25 66
a 25 152
a 25 130
a 25 67
a 25 153
a 25 68
a 25 69
a 25 29
a 25 72
a 25 73
a 25 74
a 25 75
a 25 76
a 25 133
a 25 77
a 25 134
a 25 135
a 25 136
a 25 154
a 25 155
a 25 137
a 25 138
a 25 78
a 26 4
a 26 38
a 26 6
a 26 102
a 26 156
a 26 23
a 26 24
a 26 157
a 26 158
a 26 139
a 26 107
a 26 159
a 26 160
a 26 108
a 26 161
a 26 109
a 26 110
a 26 162
a 26 163
a 26 111
a 26 48
a 26 140
a 26 164
a 26 112
a 26 141
a 26 142
a 26 165
a 26 50
a 26 113
a 26 166
a 26 114
a 26 143
a 26 144
a 26 167
a 26 168
a 26 169
a 26 51
a 26 115
a 26 25
a 26 170
a 26 116
a 26 117
a 26 145
a 26 146
a 26 171
a 26 118
a 26 172
a 26 173
a 26 53
a 26 119
a 26 174
a 26 120
a 26 147
a 26 175
a 26 176
a 26 177
a 26 27
a 26 178
a 26 121
a 26 55
a 26 179
a 26 148
a 26 56
a 26 57
a 26 122
a 26 180
a 26 181
a 26 149
a 26 182
a 26 123
a 26 124
a 26 125
a 26 183
a 26 184
a 26 58
a 26 126
a 26 185
a 26 59
a 26 60
a 26 186
a 26 127
a 26 61
a 26 62
a 26 128
a 26 187
a 26 63
a 26 64
a 26 188
a 26 129
a 26 189
a 26 190
a 26 65
a 26 191
a 26 28
a 26 151
a 26 66
a 26 192
a 26 152
a 26 193
a 26 130
a 26 194
a 26 67
a 26 153
a 26 195
a 26 196
a 26 197
a 26 68
a 26 69
a 26 131
a 26 198
a 26 71
a 26 29
a 26 199
a 26 200
a 26 72
a 26 73
a 26 201
a 26 74
a 26 202
a 26 75
a 26 76
a 26 203
a 26 132
a 26 204
a 26 205
a 26 206
a 26 133
a 26 77
a 26 134
a 26 207
a 26 135
a 26 136
a 26 154
a 26 155
a 26 137
a 26 138
a 26 78
a 26 30
a 26 208
a 27 4
a 27 209
a 27 38
a 27 100
a 27 6
a 27 101
a 27 104
a 27 210
a 27 44
a 27 105
a 27 106
a 27 23
a 27 24
a 27 108
a 27 163
a 27 111
a 27 48
a 27 211
a 27 49
a 27 212
a 27 213
a 27 51
a 27 25
a 27 26
a 27 119
a 27 54
a 27 56
a 27 125
a 27 58
a 27 185
a 27 59
a 27 60
a 27 61
a 27 62
a 27 187
a 27 63
a 27 64
a 27 65
a 27 28
a 27 66
a 27 214
a 27 193
a 27 67
a 27 196
a 27 131
a 27 70
a 27 71
a 27 29
a 27 200
a 27 72
a 27 73
a 27 74
a 27 75
a 27 76
a 27 132
a 27 133
a 27 77
a 27 207
a 27 135
a 28 4
a 28 38
a 28 6
a 28 23
a 28 24
a 28 46
a 28 47
a 28 48
a 28 50
a 28 94
a 28 51
a 28 25
a 28 26
a 28 215
a 28 53
a 28 216
a 28 27
a 28 55
a 28 56
a 28 96
a 28 57
a 28 125
a 28 217
a 28 58
a 28 126
a 28 59
a 28 60
a 28 127
a 28 61
a 28 62
a 28 218
a 28 63
a 28 64
a 28 219
a 28 220
a 28 65
a 28 221
a 28 66
a 28 222
a 28 214
a 28 223
a 28 130
a 28 67
a 28 224
a 28 225
a 28 68
a 28 69
a 28 131
a 28 226
a 28 227
a 28 70
a 28 71
a 28 29
a 28 200
a 28 228
a 28 72
a 28 73
a 28 74
a 28 75
a 28 76
a 28 204
a 28 133
a 28 77
a 28 135
a 28 78
a 28 30
a 28 79
a 28 229
a 29 4
a 29 6
a 29 23
a 29 24
a 29 48
a 29 50
a 29 51
a 29 25
a 29 26
a 29 53
a 29 27
a 29 55
a 29 56
a 29 57
a 29 122
a 29 123
a 29 124
a 29 125
a 29 58
a 29 126
a 29 185
a 29 59
a 29 60
a 29 186
a 29 127
a 29 61
a 29 62
a 29 63
a 29 64
a 29 65
a 29 28
a 29 66
a 29 214
a 29 223
a 29 130
a 29 67
a 29 68
a 29 69
a 29 131
a 29 227
a 29 230
a 29 70
a 29 200
a 29 72
a 29 73
a 29 74
a 29 75
a 29 76
a 29 132
a 29 204
a 29 133
a 29 77
a 29 135
a 29 136
a 29 78
a 29 30
a 29 79
a 29 229
a 29 231
a 30 4
a 30 6
a 30 24
a 30 26
a 30 58
a 30 63
a 30 28
a 30 67
a 30 71
a 30 29
a 30 73
a 30 74
a 30 75
a 30 76
a 30 232
a 30 233
a 30 234
a 30 79
a 30 235
a 30 229
a 30 236
a 30 237
a 30 238
a 30 231
a 81 80
a 81 82
a 81 83
a 81 11
a 80 81
a 80 82
a 80 83
a 80 11
a 82 80
a 82 81
a 82 11
a 83 80
a 83 81
a 83 11
a 84 11
a 85 11
a 86 11
a 86 88
a 86 89
a 87 11
a 88 11
a 88 86
a 88 89
a 89 11
a 89 86
a 89 88
a 90 11
a 31 12
a 31 5
a 32 5
a 33 5
a 33 34
a 33 35
a 33 6
a 34 5
a 34 33
a 34 239
a 35 5
a 35 33
a 35 239
a 35 6
a 239 34
a 239 35
a 36 6
a 36 23
a 36 54
a 54 36
a 54 38
a 54 6
a 54 23
a 54 108
a 54 240
a 54 118
a 54 27
a 54 58
a 54 60
a 54 191
a 54 193
a 54 196
a 54 197
a 54 131
a 54 75
a 54 77
a 38 209
a 38 100
a 38 6
a 38 101
a 38 41
a 38 210
a 38 43
a 38 44
a 38 241
a 38 105
a 38 106
a 38 23
a 38 24
a 38 48
a 38 26
a 38 54
a 38 27
a 38 58
a 38 28
a 209 38
a 209 100
a 209 101
a 209 210
a 209 241
a 209 105
a 209 27
a 100 209
a 100 38
a 100 101
a 100 210
a 100 105
a 100 106
a 100 24
a 100 27
a 101 209
a 101 38
a 101 100
a 101 210
a 101 241
a 101 105
a 101 106
a 101 24
a 101 27
a 101 58
a 210 209
a 210 38
a 210 100
a 210 101
a 210 241
a 210 105
a 210 106
a 210 27
a 241 209
a 241 38
a 241 101
a 241 210
a 241 105
a 241 106
a 105 209
a 105 38
a 105 100
a 105 101
a 105 210
a 105 241
a 105 106
a 105 24
a 105 27
a 105 58
a 104 97
a 104 24
a 104 111
a 104 27
a 104 58
a 97 104
a 97 24
a 97 58
a 58 97
a 58 38
a 58 6
a 58 101
a 58 102
a 58 104
a 58 105
a 58 106
a 58 23
a 58 24
a 58 47
a 58 163
a 58 111
a 58 48
a 58 112
a 58 50
a 58 168
a 58 51
a 58 25
a 58 26
a 58 117
a 58 52
a 58 118
a 58 173
a 58 53
a 58 119
a 58 176
a 58 54
a 58 27
a 58 121
a 58 55
a 58 179
a 58 56
a 58 57
a 58 122
a 58 123
a 58 125
a 58 126
a 58 185
a 58 59
a 58 60
a 58 186
a 58 127
a 58 242
a 58 61
a 58 62
a 58 187
a 58 63
a 58 64
a 58 243
a 58 65
a 58 191
a 58 28
a 58 66
a 58 244
a 58 214
a 58 193
a 58 130
a 58 67
a 58 196
a 58 68
a 58 69
a 58 131
a 58 227
a 58 70
a 58 71
a 58 29
a 58 200
a 58 228
a 58 72
a 58 73
a 58 74
a 58 75
a 58 76
a 58 132
a 58 204
a 58 206
a 58 133
a 58 77
a 58 134
a 58 207
a 58 135
a 58 136
a 58 78
a 58 30
a 37 6
a 98 24
a 99 24
a 41 38
a 41 6
a 41 43
a 41 44
a 41 45
a 41 23
a 41 48
a 43 38
a 43 6
a 43 41
a 43 42
a 43 44
a 43 45
a 43 23
a 43 48
a 44 38
a 44 6
a 44 41
a 44 42
a 44 43
a 44 45
a 44 91
a 44 23
a 44 48
a 44 27
a 106 38
a 106 100
a 106 101
a 106 210
a 106 241
a 106 105
a 106 24
a 106 27
a 106 58
a 48 38
a 48 6
a 48 41
a 48 43
a 48 44
a 48 23
a 48 211
a 48 49
a 48 245
a 48 213
a 48 26
a 48 27
a 48 58
a 48 28
a 48 29
a 39 6
a 39 40
a 39 23
a 40 6
a 40 39
a 40 42
a 40 45
a 42 6
a 42 40
a 42 43
a 42 44
a 42 45
a 42 23
a 45 6
a 45 40
a 45 41
a 45 42
a 45 43
a 45 44
a 45 91
a 45 23
a 46 6
a 46 23
a 46 47
a 46 95
a 46 28
a 47 6
a 47 23
a 47 46
a 47 93
a 47 94
a 47 95
a 47 96
a 47 58
a 47 28
a 49 6
a 49 48
a 49 27
a 50 6
a 50 24
a 50 160
a 50 161
a 50 112
a 50 114
a 50 51
a 50 25
a 50 26
a 50 53
a 50 121
a 50 55
a 50 57
a 50 123
a 50 125
a 50 58
a 50 60
a 50 61
a 50 128
a 50 63
a 50 28
a 50 130
a 50 67
a 50 68
a 50 69
a 50 29
a 50 73
a 50 74
a 50 75
a 50 76
a 50 135
a 50 136
a 50 138
a 50 78
a 51 6
a 51 24
a 51 157
a 51 162
a 51 141
a 51 142
a 51 50
a 51 113
a 51 25
a 51 26
a 51 116
a 51 53
a 51 27
a 51 121
a 51 55
a 51 56
a 51 57
a 51 123
a 51 124
a 51 125
a 51 58
a 51 126
a 51 150
a 51 127
a 51 61
a 51 62
a 51 128
a 51 63
a 51 28
a 51 151
a 51 66
a 51 152
a 51 130
a 51 67
a 51 153
a 51 68
a 51 69
a 51 29
a 51 73
a 51 74
a 51 75
a 51 203
a 51 77
a 51 135
a 51 136
a 51 155
a 51 137
a 51 138
a 51 78
a 51 208
a 52 6
a 52 24
a 52 246
a 52 25
a 52 53
a 52 121
a 52 55
a 52 57
a 52 123
a 52 183
a 52 58
a 52 126
a 52 60
a 52 128
a 52 63
a 52 130
a 52 67
a 52 73
a 52 75
a 52 203
a 52 134
a 52 135
a 52 136
a 52 247
a 52 137
a 52 138
a 53 6
a 53 24
a 53 50
a 53 113
a 53 51
a 53 25
a 53 26
a 53 116
a 53 52
a 53 145
a 53 121
a 53 55
a 53 56
a 53 57
a 53 122
a 53 125
a 53 58
a 53 126
a 53 150
a 53 60
a 53 127
a 53 61
a 53 62
a 53 128
a 53 63
a 53 129
a 53 28
a 53 152
a 53 130
a 53 67
a 53 153
a 53 68
a 53 29
a 53 73
a 53 74
a 53 75
a 53 133
a 53 77
a 53 135
a 53 136
a 53 154
a 53 155
a 53 137
a 53 138
a 53 78
a 55 6
a 55 24
a 55 157
a 55 159
a 55 162
a 55 141
a 55 142
a 55 50
a 55 113
a 55 166
a 55 114
a 55 51
a 55 25
a 55 26
a 55 116
a 55 52
a 55 145
a 55 53
a 55 177
a 55 121
a 55 56
a 55 57
a 55 122
a 55 123
a 55 124
a 55 125
a 55 58
a 55 126
a 55 60
a 55 127
a 55 61
a 55 62
a 55 128
a 55 63
a 55 28
a 55 151
a 55 152
a 55 130
a 55 194
a 55 67
a 55 153
a 55 68
a 55 69
a 55 29
a 55 199
a 55 73
a 55 74
a 55 202
a 55 75
a 55 203
a 55 205
a 55 133
a 55 77
a 55 248
a 55 135
a 55 249
a 55 136
a 55 154
a 55 155
a 55 137
a 55 138
a 55 78
a 55 250
a 55 208
a 55 251
a 55 252
a 55 253
a 56 6
a 56 24
a 56 141
a 56 142
a 56 113
a 56 51
a 56 25
a 56 26
a 56 116
a 56 53
a 56 27
a 56 121
a 56 55
a 56 57
a 56 123
a 56 125
a 56 58
a 56 126
a 56 127
a 56 61
a 56 62
a 56 128
a 56 63
a 56 28
a 56 151
a 56 152
a 56 67
a 56 153
a 56 68
a 56 29
a 56 73
a 56 74
a 56 75
a 56 76
a 56 133
a 56 134
a 56 135
a 56 136
a 56 155
a 56 138
a 56 78
a 56 250
a 56 208
a 56 251
a 56 252
a 56 253
a 57 6
a 57 24
a 57 159
a 57 162
a 57 112
a 57 141
a 57 142
a 57 165
a 57 50
a 57 113
a 57 166
a 57 114
a 57 143
a 57 144
a 57 254
a 57 51
a 57 255
a 57 115
a 57 25
a 57 256
a 57 257
a 57 258
a 57 26
a 57 116
a 57 52
a 57 145
a 57 146
a 57 171
a 57 118
a 57 172
a 57 53
a 57 259
a 57 119
a 57 120
a 57 147
a 57 177
a 57 121
a 57 55
a 57 148
a 57 56
a 57 260
a 57 149
a 57 182
a 57 123
a 57 124
a 57 125
a 57 58
a 57 126
a 57 150
a 57 60
a 57 127
a 57 61
a 57 62
a 57 128
a 57 63
a 57 64
a 57 188
a 57 261
a 57 129
a 57 189
a 57 190
a 57 191
a 57 28
a 57 151
a 57 262
a 57 152
a 57 263
a 57 130
a 57 194
a 57 67
a 57 153
a 57 195
a 57 68
a 57 69
a 57 131
a 57 29
a 57 264
a 57 73
a 57 201
a 57 74
a 57 75
a 57 76
a 57 205
a 57 206
a 57 133
a 57 77
a 57 207
a 57 135
a 57 136
a 57 154
a 57 155
a 57 137
a 57 138
a 57 78
a 59 6
a 59 23
a 59 26
a 59 27
a 59 58
a 59 64
a 59 65
a 59 28
a 59 66
a 59 214
a 59 67
a 59 71
a 59 29
a 59 74
a 59 75
a 59 76
a 60 6
a 60 24
a 60 50
a 60 25
a 60 26
a 60 52
a 60 53
a 60 119
a 60 54
a 60 27
a 60 121
a 60 55
a 60 57
a 60 125
a 60 58
a 60 126
a 60 127
a 60 61
a 60 128
a 60 63
a 60 191
a 60 28
a 60 193
a 60 130
a 60 67
a 60 196
a 60 68
a 60 69
a 60 29
a 60 73
a 60 74
a 60 75
a 60 76
a 60 77
a 60 135
a 61 6
a 61 23
a 61 24
a 61 162
a 61 141
a 61 142
a 61 50
a 61 113
a 61 114
a 61 144
a 61 51
a 61 25
a 61 26
a 61 116
a 61 146
a 61 53
a 61 147
a 61 27
a 61 121
a 61 55
a 61 56
a 61 57
a 61 123
a 61 125
a 61 58
a 61 126
a 61 60
a 61 127
a 61 128
a 61 63
a 61 129
a 61 190
a 61 28
a 61 151
a 61 152
a 61 130
a 61 194
a 61 67
a 61 153
a 61 195
a 61 68
a 61 69
a 61 131
a 61 265
a 61 29
a 61 73
a 61 201
a 61 74
a 61 75
a 61 76
a 61 266
a 61 205
a 61 133
a 61 134
a 61 135
a 61 136
a 61 154
a 61 155
a 61 137
a 61 138
a 61 78
a 62 6
a 62 24
a 62 159
a 62 162
a 62 141
a 62 113
a 62 166
a 62 51
a 62 25
a 62 26
a 62 116
a 62 145
a 62 53
a 62 175
a 62 267
a 62 27
a 62 121
a 62 55
a 62 56
a 62 57
a 62 149
a 62 125
a 62 58
a 62 127
a 62 128
a 62 63
a 62 268
a 62 28
a 62 151
a 62 192
a 62 152
a 62 194
a 62 68
a 62 198
a 62 29
a 62 73
a 62 74
a 62 202
a 62 75
a 62 76
a 62 203
a 62 133
a 62 77
a 62 135
a 62 136
a 62 138
a 62 78
a 62 208
a 63 6
a 63 24
a 63 111
a 63 112
a 63 142
a 63 50
a 63 167
a 63 246
a 63 168
a 63 51
a 63 25
a 63 26
a 63 116
a 63 117
a 63 52
a 63 146
a 63 118
a 63 173
a 63 53
a 63 119
a 63 176
a 63 27
a 63 178
a 63 121
a 63 55
a 63 179
a 63 56
a 63 57
a 63 180
a 63 182
a 63 123
a 63 269
a 63 124
a 63 125
a 63 183
a 63 184
a 63 58
a 63 126
a 63 60
a 63 127
a 63 61
a 63 62
a 63 128
a 63 270
a 63 187
a 63 129
a 63 189
a 63 190
a 63 271
a 63 272
a 63 191
a 63 28
a 63 66
a 63 244
a 63 273
a 63 274
a 63 275
a 63 152
a 63 193
a 63 130
a 63 67
a 63 276
a 63 153
a 63 195
a 63 196
a 63 277
a 63 68
a 63 69
a 63 131
a 63 265
a 63 71
a 63 29
a 63 200
a 63 72
a 63 73
a 63 201
a 63 74
a 63 75
a 63 76
a 63 132
a 63 205
a 63 133
a 63 77
a 63 134
a 63 207
a 63 135
a 63 136
a 63 154
a 63 155
a 63 137
a 63 138
a 63 78
a 63 30
a 63 208
a 64 6
a 64 23
a 64 24
a 64 26
a 64 216
a 64 27
a 64 57
a 64 58
a 64 59
a 64 65
a 64 28
a 64 66
a 64 214
a 64 67
a 64 224
a 64 70
a 64 71
a 64 29
a 64 72
a 64 74
a 64 75
a 64 76
a 64 77
a 65 6
a 65 23
a 65 24
a 65 26
a 65 27
a 65 58
a 65 59
a 65 64
a 65 28
a 65 214
a 65 67
a 65 70
a 65 71
a 65 29
a 65 200
a 65 228
a 65 72
a 65 74
a 65 75
a 65 76
a 66 6
a 66 23
a 66 24
a 66 51
a 66 25
a 66 26
a 66 27
a 66 122
a 66 58
a 66 59
a 66 63
a 66 64
a 66 28
a 66 67
a 66 70
a 66 71
a 66 29
a 66 200
a 66 228
a 66 72
a 66 74
a 66 75
a 66 76
a 66 206
a 66 77
a 66 78
a 67 6
a 67 23
a 67 24
a 67 50
a 67 51
a 67 25
a 67 26
a 67 52
a 67 53
a 67 119
a 67 27
a 67 55
a 67 56
a 67 57
a 67 123
a 67 125
a 67 58
a 67 126
a 67 59
a 67 60
a 67 127
a 67 61
a 67 187
a 67 63
a 67 64
a 67 65
a 67 191
a 67 28
a 67 66
a 67 130
a 67 68
a 67 69
a 67 131
a 67 70
a 67 71
a 67 29
a 67 200
a 67 72
a 67 73
a 67 74
a 67 75
a 67 76
a 67 132
a 67 204
a 67 77
a 67 207
a 67 135
a 67 136
a 67 30
a 68 6
a 68 24
a 68 141
a 68 142
a 68 50
a 68 113
a 68 144
a 68 51
a 68 25
a 68 26
a 68 116
a 68 145
a 68 53
a 68 259
a 68 175
a 68 177
a 68 121
a 68 55
a 68 148
a 68 56
a 68 57
a 68 149
a 68 123
a 68 124
a 68 125
a 68 58
a 68 126
a 68 60
a 68 127
a 68 61
a 68 62
a 68 128
a 68 63
a 68 188
a 68 129
a 68 268
a 68 28
a 68 151
a 68 192
a 68 152
a 68 263
a 68 130
a 68 194
a 68 67
a 68 153
a 68 195
a 68 278
a 68 279
a 68 69
a 68 280
a 68 281
a 68 282
a 68 283
a 68 265
a 68 198
a 68 284
a 68 29
a 68 199
a 68 264
a 68 73
a 68 201
a 68 74
a 68 285
a 68 202
a 68 75
a 68 76
a 68 286
a 68 203
a 68 287
a 68 205
a 68 288
a 68 289
a 68 206
a 68 133
a 68 77
a 68 290
a 68 207
a 68 248
a 68 135
a 68 249
a 68 136
a 68 154
a 68 155
a 68 137
a 68 138
a 68 78
a 68 208
a 69 6
a 69 24
a 69 50
a 69 51
a 69 25
a 69 26
a 69 119
a 69 121
a 69 55
a 69 57
a 69 125
a 69 58
a 69 126
a 69 60
a 69 61
a 69 128
a 69 63
a 69 129
a 69 191
a 69 28
a 69 193
a 69 130
a 69 67
a 69 195
a 69 196
a 69 68
a 69 265
a 69 198
a 69 29
a 69 73
a 69 201
a 69 74
a 69 75
a 69 291
a 69 292
a 69 206
a 69 133
a 69 134
a 69 207
a 69 135
a 69 136
a 69 137
a 69 138
a 69 78
a 70 6
a 70 23
a 70 27
a 70 58
a 70 64
a 70 65
a 70 28
a 70 66
a 70 214
a 70 67
a 70 227
a 70 71
a 70 29
a 70 72
a 70 74
a 70 75
a 70 76
a 71 6
a 71 23
a 71 24
a 71 26
a 71 27
a 71 58
a 71 59
a 71 63
a 71 64
a 71 65
a 71 28
a 71 66
a 71 214
a 71 67
a 71 70
a 71 200
a 71 72
a 71 73
a 71 74
a 71 75
a 71 76
a 71 77
a 71 30
a 72 6
a 72 23
a 72 24
a 72 25
a 72 26
a 72 27
a 72 58
a 72 63
a 72 64
a 72 65
a 72 28
a 72 66
a 72 214
a 72 67
a 72 70
a 72 71
a 72 29
a 72 73
a 72 74
a 72 75
a 72 76
a 72 77
a 73 6
a 73 23
a 73 24
a 73 141
a 73 142
a 73 50
a 73 113
a 73 144
a 73 51
a 73 25
a 73 26
a 73 116
a 73 52
a 73 145
a 73 171
a 73 172
a 73 53
a 73 259
a 73 119
a 73 147
a 73 27
a 73 121
a 73 55
a 73 148
a 73 56
a 73 57
a 73 149
a 73 123
a 73 124
a 73 125
a 73 58
a 73 126
a 73 60
a 73 127
a 73 61
a 73 62
a 73 128
a 73 63
a 73 243
a 73 129
a 73 190
a 73 28
a 73 151
a 73 152
a 73 263
a 73 193
a 73 130
a 73 194
a 73 67
a 73 153
a 73 195
a 73 278
a 73 196
a 73 68
a 73 69
a 73 131
a 73 280
a 73 282
a 73 265
a 73 198
a 73 71
a 73 29
a 73 199
a 73 72
a 73 201
a 73 74
a 73 285
a 73 202
a 73 75
a 73 76
a 73 293
a 73 294
a 73 295
a 73 266
a 73 286
a 73 203
a 73 204
a 73 287
a 73 291
a 73 205
a 73 288
a 73 289
a 73 206
a 73 296
a 73 133
a 73 77
a 73 290
a 73 134
a 73 207
a 73 248
a 73 135
a 73 249
a 73 136
a 73 154
a 73 155
a 73 137
a 73 138
a 73 78
a 73 30
a 73 208
a 73 251
a 74 6
a 74 23
a 74 24
a 74 50
a 74 51
a 74 25
a 74 26
a 74 117
a 74 118
a 74 173
a 74 53
a 74 119
a 74 27
a 74 55
a 74 56
a 74 57
a 74 123
a 74 125
a 74 58
a 74 126
a 74 185
a 74 59
a 74 60
a 74 127
a 74 61
a 74 62
a 74 187
a 74 63
a 74 64
a 74 65
a 74 191
a 74 28
a 74 66
a 74 297
a 74 193
a 74 130
a 74 67
a 74 196
a 74 68
a 74 298
a 74 69
a 74 131
a 74 70
a 74 71
a 74 29
a 74 200
a 74 228
a 74 72
a 74 73
a 74 75
a 74 76
a 74 299
a 74 132
a 74 204
a 74 206
a 74 77
a 74 134
a 74 207
a 74 135
a 74 30
a 75 6
a 75 23
a 75 24
a 75 163
a 75 211
a 75 50
a 75 51
a 75 25
a 75 26
a 75 116
a 75 52
a 75 118
a 75 53
a 75 119
a 75 54
a 75 27
a 75 121
a 75 55
a 75 56
a 75 57
a 75 122
a 75 123
a 75 124
a 75 125
a 75 58
a 75 126
a 75 185
a 75 59
a 75 60
a 75 186
a 75 127
a 75 61
a 75 62
a 75 128
a 75 187
a 75 63
a 75 64
a 75 243
a 75 129
a 75 65
a 75 191
a 75 28
a 75 151
a 75 66
a 75 244
a 75 152
a 75 214
a 75 193
a 75 130
a 75 194
a 75 67
a 75 276
a 75 153
a 75 195
a 75 224
a 75 196
a 75 277
a 75 197
a 75 68
a 75 69
a 75 131
a 75 265
a 75 198
a 75 300
a 75 227
a 75 70
a 75 71
a 75 301
a 75 29
a 75 200
a 75 228
a 75 72
a 75 302
a 75 73
a 75 201
a 75 303
a 75 74
a 75 76
a 75 294
a 75 295
a 75 304
a 75 305
a 75 306
a 75 266
a 75 203
a 75 132
a 75 307
a 75 204
a 75 308
a 75 309
a 75 310
a 75 311
a 75 287
a 75 312
a 75 291
a 75 205
a 75 288
a 75 206
a 75 313
a 75 314
a 75 133
a 75 77
a 75 315
a 75 134
a 75 207
a 75 135
a 75 136
a 75 316
a 75 317
a 75 154
a 75 155
a 75 137
a 75 318
a 75 319
a 75 138
a 75 78
a 75 30
a 75 208
a 76 6
a 76 23
a 76 24
a 76 50
a 76 25
a 76 26
a 76 27
a 76 56
a 76 57
a 76 58
a 76 59
a 76 60
a 76 61
a 76 62
a 76 63
a 76 64
a 76 65
a 76 28
a 76 66
a 76 214
a 76 130
a 76 67
a 76 68
a 76 131
a 76 70
a 76 71
a 76 29
a 76 200
a 76 72
a 76 73
a 76 74
a 76 75
a 76 204
a 76 77
a 76 78
a 76 30
a 77 6
a 77 23
a 77 24
a 77 51
a 77 25
a 77 26
a 77 53
a 77 119
a 77 54
a 77 27
a 77 121
a 77 55
a 77 57
a 77 122
a 77 123
a 77 125
a 77 58
a 77 126
a 77 60
a 77 127
a 77 62
a 77 128
a 77 63
a 77 64
a 77 243
a 77 28
a 77 66
a 77 193
a 77 130
a 77 67
a 77 196
a 77 68
a 77 131
a 77 71
a 77 29
a 77 72
a 77 73
a 77 74
a 77 75
a 77 320
a 77 76
a 77 132
a 77 204
a 77 287
a 77 291
a 77 205
a 77 288
a 77 206
a 77 313
a 77 133
a 77 134
a 77 207
a 77 135
a 77 136
a 77 316
a 77 154
a 77 155
a 77 137
a 77 318
a 77 319
a 77 138
a 77 78
a 78 6
a 78 24
a 78 50
a 78 51
a 78 25
a 78 26
a 78 116
a 78 53
a 78 177
a 78 121
a 78 55
a 78 56
a 78 57
a 78 125
a 78 58
a 78 126
a 78 127
a 78 61
a 78 62
a 78 128
a 78 63
a 78 28
a 78 66
a 78 130
a 78 153
a 78 68
a 78 69
a 78 29
a 78 73
a 78 75
a 78 76
a 78 205
a 78 289
a 78 133
a 78 77
a 78 134
a 78 135
a 78 136
a 78 154
a 78 155
a 78 137
a 78 138
a 78 250
a 78 208
a 78 251
a 78 252
a 78 253
a 79 6
a 79 28
a 79 29
a 79 232
a 79 30
a 79 233
a 79 234
a 79 235
a 79 229
a 79 236
a 102 24
a 102 111
a 102 26
a 102 58
a 111 102
a 111 104
a 111 24
a 111 108
a 111 168
a 111 26
a 111 173
a 111 176
a 111 27
a 111 58
a 111 63
a 103 24
a 158 156
a 158 107
a 158 160
a 158 26
a 156 158
a 156 139
a 156 107
a 156 26
a 139 156
a 139 25
a 139 26
a 107 156
a 107 24
a 107 158
a 107 160
a 107 161
a 107 112
a 107 115
a 107 25
a 107 26
a 91 44
a 91 45
a 91 23
a 92 23
a 92 93
a 92 95
a 92 96
a 93 23
a 93 92
a 93 47
a 94 23
a 94 47
a 94 95
a 94 28
a 95 23
a 95 92
a 95 46
a 95 47
a 95 94
a 95 96
a 96 23
a 96 92
a 96 47
a 96 95
a 96 28
a 108 24
a 108 111
a 108 212
a 108 26
a 108 54
a 108 27
a 109 24
a 109 110
a 109 26
a 110 24
a 110 109
a 110 26
a 112 24
a 112 107
a 112 160
a 112 50
a 112 25
a 112 26
a 112 57
a 112 58
a 112 63
a 113 24
a 113 141
a 113 142
a 113 144
a 113 51
a 113 25
a 113 26
a 113 116
a 113 53
a 113 121
a 113 55
a 113 56
a 113 57
a 113 125
a 113 127
a 113 61
a 113 62
a 113 128
a 113 153
a 113 68
a 113 73
a 113 135
a 114 24
a 114 50
a 114 25
a 114 26
a 114 55
a 114 57
a 114 124
a 114 126
a 114 61
a 115 24
a 115 107
a 115 143
a 115 25
a 115 26
a 115 57
a 115 124
a 116 24
a 116 141
a 116 142
a 116 113
a 116 51
a 116 25
a 116 26
a 116 53
a 116 121
a 116 55
a 116 56
a 116 57
a 116 125
a 116 127
a 116 61
a 116 62
a 116 128
a 116 63
a 116 130
a 116 153
a 116 68
a 116 73
a 116 75
a 116 135
a 116 136
a 116 155
a 116 138
a 116 78
a 116 208
a 117 24
a 117 167
a 117 168
a 117 26
a 117 173
a 117 58
a 117 63
a 117 74
a 118 24
a 118 26
a 118 119
a 118 54
a 118 57
a 118 58
a 118 63
a 118 74
a 118 75
a 119 24
a 119 26
a 119 118
a 119 176
a 119 27
a 119 57
a 119 58
a 119 60
a 119 63
a 119 67
a 119 69
a 119 73
a 119 74
a 119 75
a 119 77
a 120 24
a 120 25
a 120 26
a 120 174
a 120 57
a 121 24
a 121 159
a 121 162
a 121 141
a 121 142
a 121 50
a 121 113
a 121 144
a 121 51
a 121 25
a 121 26
a 121 116
a 121 52
a 121 53
a 121 55
a 121 56
a 121 57
a 121 123
a 121 124
a 121 58
a 121 126
a 121 185
a 121 60
a 121 127
a 121 61
a 121 62
a 121 128
a 121 63
a 121 129
a 121 151
a 121 152
a 121 130
a 121 194
a 121 153
a 121 68
a 121 69
a 121 282
a 121 73
a 121 202
a 121 75
a 121 205
a 121 133
a 121 77
a 121 135
a 121 136
a 121 154
a 121 155
a 121 137
a 121 138
a 121 78
a 122 24
a 122 26
a 122 53
a 122 55
a 122 58
a 122 66
a 122 29
a 122 75
a 122 77
a 123 24
a 123 50
a 123 51
a 123 25
a 123 26
a 123 52
a 123 121
a 123 55
a 123 56
a 123 57
a 123 124
a 123 125
a 123 58
a 123 126
a 123 127
a 123 61
a 123 128
a 123 63
a 123 130
a 123 67
a 123 68
a 123 29
a 123 73
a 123 74
a 123 75
a 123 77
a 123 135
a 123 136
a 124 24
a 124 165
a 124 114
a 124 143
a 124 51
a 124 115
a 124 25
a 124 26
a 124 146
a 124 147
a 124 175
a 124 121
a 124 55
a 124 57
a 124 182
a 124 123
a 124 125
a 124 126
a 124 127
a 124 128
a 124 63
a 124 129
a 124 189
a 124 68
a 124 29
a 124 73
a 124 75
a 124 135
a 124 136
a 125 24
a 125 159
a 125 162
a 125 141
a 125 142
a 125 50
a 125 113
a 125 166
a 125 144
a 125 51
a 125 255
a 125 25
a 125 26
a 125 116
a 125 145
a 125 53
a 125 175
a 125 177
a 125 27
a 125 55
a 125 56
a 125 57
a 125 123
a 125 124
a 125 58
a 125 126
a 125 60
a 125 127
a 125 61
a 125 62
a 125 128
a 125 63
a 125 28
a 125 151
a 125 152
a 125 130
a 125 194
a 125 67
a 125 153
a 125 68
a 125 69
a 125 282
a 125 284
a 125 29
a 125 199
a 125 264
a 125 73
a 125 74
a 125 75
a 125 203
a 125 205
a 125 206
a 125 133
a 125 77
a 125 135
a 125 136
a 125 154
a 125 155
a 125 137
a 125 138
a 125 78
a 125 208
a 126 24
a 126 114
a 126 246
a 126 51
a 126 25
a 126 26
a 126 52
a 126 53
a 126 175
a 126 121
a 126 55
a 126 56
a 126 57
a 126 123
a 126 124
a 126 125
a 126 58
a 126 60
a 126 127
a 126 61
a 126 128
a 126 63
a 126 129
a 126 189
a 126 28
a 126 130
a 126 67
a 126 68
a 126 69
a 126 29
a 126 73
a 126 74
a 126 75
a 126 133
a 126 77
a 126 135
a 126 136
a 126 247
a 126 137
a 126 138
a 126 78
a 127 24
a 127 321
a 127 141
a 127 142
a 127 113
a 127 144
a 127 51
a 127 25
a 127 256
a 127 26
a 127 116
a 127 145
a 127 53
a 127 259
a 127 177
a 127 121
a 127 55
a 127 56
a 127 57
a 127 123
a 127 124
a 127 125
a 127 58
a 127 126
a 127 60
a 127 61
a 127 62
a 127 63
a 127 28
a 127 151
a 127 192
a 127 152
a 127 130
a 127 194
a 127 67
a 127 153
a 127 68
a 127 29
a 127 73
a 127 74
a 127 75
a 127 203
a 127 205
a 127 133
a 127 77
a 127 135
a 127 136
a 127 154
a 127 155
a 127 137
a 127 138
a 127 78
a 127 208
a 128 24
a 128 141
a 128 142
a 128 50
a 128 113
a 128 144
a 128 51
a 128 25
a 128 26
a 128 116
a 128 52
a 128 145
a 128 53
a 128 121
a 128 55
a 128 56
a 128 57
a 128 123
a 128 124
a 128 125
a 128 126
a 128 60
a 128 61
a 128 62
a 128 63
a 128 129
a 128 130
a 128 194
a 128 153
a 128 68
a 128 69
a 128 73
a 128 202
a 128 75
a 128 133
a 128 77
a 128 135
a 128 136
a 128 155
a 128 137
a 128 138
a 128 78
a 129 24
a 129 25
a 129 26
a 129 53
a 129 121
a 129 57
a 129 124
a 129 126
a 129 61
a 129 128
a 129 63
a 129 190
a 129 130
a 129 68
a 129 69
a 129 73
a 129 201
a 129 75
a 130 24
a 130 50
a 130 51
a 130 25
a 130 26
a 130 116
a 130 52
a 130 146
a 130 53
a 130 121
a 130 55
a 130 57
a 130 123
a 130 125
a 130 58
a 130 126
a 130 60
a 130 127
a 130 61
a 130 128
a 130 63
a 130 129
a 130 190
a 130 28
a 130 151
a 130 152
a 130 194
a 130 67
a 130 153
a 130 195
a 130 68
a 130 69
a 130 265
a 130 198
a 130 29
a 130 73
a 130 201
a 130 74
a 130 75
a 130 76
a 130 266
a 130 287
a 130 291
a 130 205
a 130 288
a 130 133
a 130 77
a 130 134
a 130 207
a 130 135
a 130 136
a 130 155
a 130 137
a 130 138
a 130 78
a 130 208
a 131 24
a 131 26
a 131 54
a 131 27
a 131 57
a 131 58
a 131 61
a 131 63
a 131 28
a 131 67
a 131 197
a 131 29
a 131 302
a 131 73
a 131 74
a 131 75
a 131 320
a 131 76
a 131 132
a 131 307
a 131 204
a 131 77
a 131 134
a 132 24
a 132 26
a 132 27
a 132 58
a 132 63
a 132 67
a 132 197
a 132 131
a 132 29
a 132 200
a 132 74
a 132 75
a 132 77
a 133 24
a 133 25
a 133 26
a 133 53
a 133 27
a 133 121
a 133 55
a 133 56
a 133 57
a 133 125
a 133 58
a 133 126
a 133 127
a 133 61
a 133 62
a 133 128
a 133 63
a 133 28
a 133 130
a 133 68
a 133 69
a 133 29
a 133 73
a 133 201
a 133 75
a 133 320
a 133 77
a 133 134
a 133 207
a 133 135
a 133 136
a 133 138
a 133 78
a 134 24
a 134 25
a 134 26
a 134 52
a 134 56
a 134 58
a 134 61
a 134 63
a 134 193
a 134 130
a 134 196
a 134 69
a 134 131
a 134 73
a 134 201
a 134 74
a 134 75
a 134 320
a 134 307
a 134 204
a 134 206
a 134 133
a 134 77
a 134 207
a 134 316
a 134 318
a 134 78
a 135 24
a 135 142
a 135 50
a 135 113
a 135 51
a 135 25
a 135 26
a 135 116
a 135 52
a 135 145
a 135 53
a 135 177
a 135 27
a 135 121
a 135 55
a 135 56
a 135 57
a 135 123
a 135 124
a 135 125
a 135 58
a 135 126
a 135 60
a 135 127
a 135 61
a 135 62
a 135 128
a 135 63
a 135 28
a 135 130
a 135 194
a 135 67
a 135 153
a 135 68
a 135 69
a 135 29
a 135 73
a 135 201
a 135 74
a 135 75
a 135 203
a 135 205
a 135 288
a 135 289
a 135 133
a 135 77
a 135 248
a 135 136
a 135 154
a 135 155
a 135 137
a 135 138
a 135 78
a 135 208
a 135 251
a 135 253
a 136 24
a 136 50
a 136 51
a 136 25
a 136 26
a 136 116
a 136 52
a 136 53
a 136 121
a 136 55
a 136 56
a 136 57
a 136 123
a 136 124
a 136 125
a 136 58
a 136 126
a 136 127
a 136 61
a 136 62
a 136 128
a 136 63
a 136 130
a 136 67
a 136 153
a 136 68
a 136 69
a 136 29
a 136 73
a 136 75
a 136 288
a 136 289
a 136 133
a 136 77
a 136 135
a 136 249
a 136 154
a 136 155
a 136 137
a 136 138
a 136 78
a 136 208
a 137 24
a 137 51
a 137 25
a 137 26
a 137 52
a 137 53
a 137 121
a 137 55
a 137 57
a 137 125
a 137 126
a 137 127
a 137 61
a 137 128
a 137 63
a 137 130
a 137 153
a 137 68
a 137 69
a 137 73
a 137 75
a 137 77
a 137 135
a 137 249
a 137 136
a 137 154
a 137 155
a 137 138
a 137 78
a 138 24
a 138 50
a 138 51
a 138 25
a 138 26
a 138 116
a 138 52
a 138 53
a 138 177
a 138 121
a 138 55
a 138 56
a 138 57
a 138 125
a 138 126
a 138 127
a 138 61
a 138 62
a 138 128
a 138 63
a 138 130
a 138 153
a 138 68
a 138 69
a 138 73
a 138 75
a 138 133
a 138 77
a 138 135
a 138 136
a 138 247
a 138 155
a 138 137
a 138 78
a 162 157
a 162 144
a 162 51
a 162 26
a 162 121
a 162 55
a 162 57
a 162 125
a 162 61
a 162 62
a 157 162
a 157 166
a 157 51
a 157 26
a 157 145
a 157 55
a 166 157
a 166 159
a 166 26
a 166 55
a 166 57
a 166 125
a 166 62
a 145 157
a 145 25
a 145 26
a 145 53
a 145 55
a 145 57
a 145 125
a 145 150
a 145 127
a 145 62
a 145 128
a 145 153
a 145 68
a 145 73
a 145 135
a 160 158
a 160 107
a 160 161
a 160 112
a 160 50
a 160 26
a 161 107
a 161 160
a 161 50
a 161 26
a 159 166
a 159 26
a 159 121
a 159 55
a 159 57
a 159 125
a 159 62
a 212 108
a 212 27
a 144 162
a 144 113
a 144 25
a 144 26
a 144 172
a 144 121
a 144 57
a 144 125
a 144 127
a 144 61
a 144 128
a 144 153
a 144 68
a 144 73
a 211 163
a 211 48
a 211 245
a 211 27
a 211 75
a 163 211
a 163 26
a 163 27
a 163 58
a 163 75
a 168 111
a 168 26
a 168 117
a 168 176
a 168 58
a 168 63
a 173 111
a 173 26
a 173 117
a 173 178
a 173 179
a 173 269
a 173 58
a 173 63
a 173 74
a 176 111
a 176 168
a 176 26
a 176 119
a 176 58
a 176 63
a 245 48
a 245 211
a 245 213
a 213 48
a 213 245
a 213 27
a 140 25
a 140 26
a 164 26
a 321 127
a 142 141
a 142 113
a 142 51
a 142 25
a 142 26
a 142 116
a 142 177
a 142 121
a 142 55
a 142 56
a 142 57
a 142 125
a 142 127
a 142 61
a 142 128
a 142 63
a 142 153
a 142 68
a 142 73
a 142 135
a 141 142
a 141 113
a 141 51
a 141 25
a 141 26
a 141 116
a 141 121
a 141 55
a 141 56
a 141 57
a 141 125
a 141 127
a 141 61
a 141 62
a 141 128
a 141 153
a 141 68
a 141 73
a 153 141
a 153 142
a 153 113
a 153 144
a 153 51
a 153 25
a 153 26
a 153 116
a 153 145
a 153 172
a 153 53
a 153 177
a 153 121
a 153 55
a 153 148
a 153 56
a 153 57
a 153 149
a 153 125
a 153 127
a 153 61
a 153 128
a 153 63
a 153 322
a 153 151
a 153 152
a 153 130
a 153 194
a 153 68
a 153 282
a 153 284
a 153 199
a 153 264
a 153 73
a 153 202
a 153 75
a 153 203
a 153 205
a 153 248
a 153 135
a 153 249
a 153 136
a 153 154
a 153 155
a 153 137
a 153 138
a 153 78
a 153 208
a 153 251
a 153 253
a 177 142
a 177 26
a 177 55
a 177 57
a 177 125
a 177 150
a 177 127
a 177 153
a 177 68
a 177 135
a 177 155
a 177 138
a 177 78
a 143 165
a 143 115
a 143 25
a 143 26
a 143 147
a 143 57
a 143 124
a 165 143
a 165 26
a 165 57
a 165 124
a 147 143
a 147 25
a 147 26
a 147 146
a 147 171
a 147 175
a 147 57
a 147 124
a 147 61
a 147 73
a 172 144
a 172 26
a 172 57
a 172 153
a 172 73
a 169 167
a 169 26
a 167 169
a 167 26
a 167 117
a 167 63
a 257 254
a 257 57
a 254 257
a 254 57
a 246 52
a 246 126
a 246 63
a 150 51
a 150 25
a 150 145
a 150 53
a 150 177
a 150 57
a 151 51
a 151 25
a 151 26
a 151 121
a 151 55
a 151 56
a 151 57
a 151 125
a 151 127
a 151 61
a 151 62
a 151 268
a 151 192
a 151 152
a 151 130
a 151 153
a 151 68
a 151 73
a 151 75
a 152 51
a 152 25
a 152 26
a 152 53
a 152 121
a 152 55
a 152 56
a 152 57
a 152 125
a 152 127
a 152 61
a 152 62
a 152 63
a 152 151
a 152 130
a 152 153
a 152 68
a 152 73
a 152 75
a 203 51
a 203 26
a 203 52
a 203 55
a 203 125
a 203 127
a 203 62
a 203 153
a 203 68
a 203 73
a 203 285
a 203 202
a 203 75
a 203 205
a 203 135
a 203 251
a 203 253
a 155 51
a 155 25
a 155 26
a 155 116
a 155 53
a 155 177
a 155 121
a 155 55
a 155 56
a 155 57
a 155 125
a 155 127
a 155 61
a 155 128
a 155 63
a 155 130
a 155 153
a 155 68
a 155 73
a 155 75
a 155 205
a 155 77
a 155 135
a 155 136
a 155 137
a 155 138
a 155 78
a 208 51
a 208 26
a 208 116
a 208 55
a 208 56
a 208 125
a 208 127
a 208 62
a 208 63
a 208 130
a 208 153
a 208 68
a 208 73
a 208 75
a 208 135
a 208 136
a 208 78
a 208 251
a 208 323
a 208 252
a 208 253
a 255 57
a 255 125
a 146 25
a 146 26
a 146 147
a 146 57
a 146 124
a 146 61
a 146 63
a 146 130
a 148 25
a 148 26
a 148 57
a 148 149
a 148 153
a 148 68
a 148 73
a 149 25
a 149 26
a 149 267
a 149 148
a 149 57
a 149 62
a 149 153
a 149 68
a 149 73
a 154 25
a 154 26
a 154 53
a 154 121
a 154 55
a 154 57
a 154 125
a 154 127
a 154 61
a 154 63
a 154 153
a 154 68
a 154 73
a 154 75
a 154 77
a 154 135
a 154 136
a 154 137
a 154 78
a 256 57
a 256 127
a 170 26
a 258 57
a 171 26
a 171 147
a 171 57
a 171 73
a 174 26
a 174 120
a 175 26
a 175 324
a 175 147
a 175 124
a 175 125
a 175 126
a 175 62
a 175 68
a 178 26
a 178 173
a 178 179
a 178 63
a 179 26
a 179 173
a 179 178
a 179 182
a 179 58
a 179 63
a 180 26
a 180 184
a 180 325
a 180 63
a 181 26
a 181 325
a 182 26
a 182 179
a 182 57
a 182 124
a 182 325
a 182 63
a 183 26
a 183 326
a 183 52
a 183 63
a 184 26
a 184 180
a 184 63
a 185 26
a 185 27
a 185 121
a 185 58
a 185 29
a 185 74
a 185 75
a 186 26
a 186 58
a 186 29
a 186 75
a 187 26
a 187 27
a 187 58
a 187 63
a 187 327
a 187 67
a 187 74
a 187 75
a 188 26
a 188 57
a 188 190
a 188 68
a 189 26
a 189 57
a 189 124
a 189 126
a 189 63
a 190 26
a 190 57
a 190 61
a 190 63
a 190 188
a 190 129
a 190 192
a 190 130
a 190 195
a 190 73
a 191 26
a 191 54
a 191 57
a 191 58
a 191 60
a 191 63
a 191 244
a 191 193
a 191 67
a 191 69
a 191 74
a 191 75
a 192 26
a 192 127
a 192 62
a 192 190
a 192 151
a 192 194
a 192 68
a 193 26
a 193 54
a 193 27
a 193 58
a 193 60
a 193 63
a 193 191
a 193 196
a 193 69
a 193 265
a 193 73
a 193 74
a 193 75
a 193 320
a 193 77
a 193 134
a 194 26
a 194 121
a 194 55
a 194 57
a 194 125
a 194 127
a 194 61
a 194 62
a 194 128
a 194 192
a 194 130
a 194 153
a 194 68
a 194 281
a 194 199
a 194 73
a 194 75
a 194 135
a 195 26
a 195 57
a 195 61
a 195 63
a 195 190
a 195 130
a 195 68
a 195 69
a 195 73
a 195 75
a 196 26
a 196 54
a 196 27
a 196 58
a 196 60
a 196 63
a 196 193
a 196 69
a 196 73
a 196 74
a 196 75
a 196 320
a 196 77
a 196 134
a 197 26
a 197 54
a 197 131
a 197 302
a 197 75
a 197 320
a 197 132
a 198 26
a 198 62
a 198 130
a 198 68
a 198 69
a 198 73
a 198 201
a 198 75
a 199 26
a 199 55
a 199 125
a 199 194
a 199 153
a 199 68
a 199 73
a 199 285
a 199 202
a 200 26
a 200 27
a 200 58
a 200 63
a 200 65
a 200 28
a 200 66
a 200 67
a 200 71
a 200 29
a 200 74
a 200 75
a 200 76
a 200 132
a 201 26
a 201 57
a 201 61
a 201 63
a 201 129
a 201 130
a 201 68
a 201 69
a 201 198
a 201 73
a 201 75
a 201 295
a 201 266
a 201 286
a 201 133
a 201 134
a 201 135
a 202 26
a 202 121
a 202 55
a 202 62
a 202 128
a 202 153
a 202 68
a 202 199
a 202 73
a 202 203
a 202 205
a 204 26
a 204 58
a 204 28
a 204 67
a 204 131
a 204 29
a 204 302
a 204 73
a 204 74
a 204 75
a 204 320
a 204 76
a 204 307
a 204 206
a 204 77
a 204 134
a 204 207
a 205 26
a 205 121
a 205 55
a 205 57
a 205 125
a 205 127
a 205 61
a 205 63
a 205 130
a 205 153
a 205 68
a 205 73
a 205 202
a 205 75
a 205 203
a 205 288
a 205 77
a 205 248
a 205 135
a 205 249
a 205 155
a 205 78
a 206 26
a 206 57
a 206 125
a 206 58
a 206 66
a 206 68
a 206 69
a 206 302
a 206 73
a 206 74
a 206 75
a 206 320
a 206 307
a 206 204
a 206 77
a 206 134
a 206 207
a 206 318
a 207 26
a 207 27
a 207 57
a 207 58
a 207 63
a 207 130
a 207 67
a 207 68
a 207 69
a 207 73
a 207 74
a 207 75
a 207 320
a 207 204
a 207 206
a 207 133
a 207 77
a 207 134
a 207 318
a 240 54
a 326 183
a 247 52
a 247 126
a 247 138
a 216 215
a 216 64
a 216 28
a 215 216
a 215 28
a 269 173
a 269 63
a 259 57
a 259 127
a 259 68
a 259 73
a 324 175
a 267 149
a 267 62
a 214 27
a 214 58
a 214 59
a 214 64
a 214 65
a 214 221
a 214 328
a 214 28
a 214 222
a 214 70
a 214 71
a 214 29
a 214 72
a 214 75
a 214 76
a 282 121
a 282 125
a 282 153
a 282 68
a 282 73
a 248 55
a 248 153
a 248 68
a 248 73
a 248 205
a 248 135
a 248 249
a 249 55
a 249 153
a 249 68
a 249 73
a 249 205
a 249 248
a 249 136
a 249 137
a 250 55
a 250 56
a 250 78
a 250 252
a 251 55
a 251 56
a 251 153
a 251 73
a 251 203
a 251 135
a 251 78
a 251 208
a 251 253
a 252 55
a 252 56
a 252 78
a 252 250
a 252 208
a 253 55
a 253 56
a 253 153
a 253 203
a 253 135
a 253 78
a 253 208
a 253 251
a 260 57
a 261 57
a 262 57
a 263 57
a 263 68
a 263 73
a 264 57
a 264 125
a 264 153
a 264 68
a 325 180
a 325 181
a 325 182
a 284 125
a 284 153
a 284 68
a 217 28
a 242 58
a 243 58
a 243 73
a 243 75
a 243 77
a 244 58
a 244 63
a 244 191
a 244 274
a 244 265
a 244 75
a 227 58
a 227 28
a 227 224
a 227 70
a 227 29
a 227 228
a 227 75
a 228 58
a 228 65
a 228 28
a 228 66
a 228 227
a 228 74
a 228 75
a 265 61
a 265 63
a 265 244
a 265 193
a 265 130
a 265 68
a 265 69
a 265 73
a 265 75
a 265 320
a 266 61
a 266 130
a 266 73
a 266 201
a 266 75
a 266 294
a 266 295
a 266 287
a 266 291
a 268 62
a 268 151
a 268 68
a 218 28
a 270 63
a 327 187
a 271 63
a 271 273
a 272 63
a 273 63
a 273 271
a 274 63
a 274 244
a 275 63
a 276 63
a 276 277
a 276 75
a 277 63
a 277 276
a 277 75
a 224 64
a 224 28
a 224 227
a 224 75
a 219 28
a 220 28
a 322 153
a 221 28
a 221 214
a 328 214
a 222 28
a 222 214
a 223 28
a 223 29
a 225 28
a 225 226
a 226 28
a 226 225
a 229 28
a 229 29
a 229 232
a 229 30
a 229 79
a 229 236
a 297 74
a 320 193
a 320 196
a 320 197
a 320 131
a 320 265
a 320 302
a 320 307
a 320 204
a 320 206
a 320 133
a 320 77
a 320 134
a 320 207
a 287 130
a 287 68
a 287 73
a 287 75
a 287 294
a 287 295
a 287 266
a 287 291
a 287 288
a 287 77
a 291 130
a 291 69
a 291 73
a 291 75
a 291 295
a 291 266
a 291 286
a 291 287
a 291 77
a 288 130
a 288 68
a 288 73
a 288 75
a 288 294
a 288 287
a 288 205
a 288 77
a 288 135
a 288 136
a 281 194
a 281 68
a 278 68
a 278 73
a 279 68
a 302 197
a 302 131
a 302 75
a 302 320
a 302 204
a 302 206
a 280 68
a 280 73
a 283 68
a 285 68
a 285 199
a 285 73
a 285 203
a 286 68
a 286 73
a 286 201
a 286 294
a 286 291
a 289 68
a 289 73
a 289 135
a 289 136
a 289 78
a 290 68
a 290 73
a 298 74
a 292 69
a 307 131
a 307 75
a 307 320
a 307 204
a 307 206
a 307 134
a 300 75
a 230 29
a 301 75
a 231 29
a 231 30
a 293 73
a 294 73
a 294 75
a 294 295
a 294 266
a 294 286
a 294 287
a 294 288
a 295 73
a 295 201
a 295 75
a 295 294
a 295 266
a 295 287
a 295 291
a 296 73
a 303 75
a 299 74
a 304 75
a 305 75
a 305 306
a 306 75
a 306 305
a 308 75
a 309 75
a 310 75
a 311 75
a 312 75
a 313 75
a 313 77
a 314 75
a 315 75
a 316 75
a 316 77
a 316 134
a 317 75
a 318 75
a 318 206
a 318 77
a 318 134
a 318 207
a 319 75
a 319 77
a 232 30
a 232 79
a 232 229
a 233 30
a 233 79
a 233 235
a 234 30
a 234 79
a 234 235
a 235 30
a 235 233
a 235 234
a 235 79
a 236 30
a 236 79
a 236 229
a 237 30
a 238 30
a 238 329
a 238 330
a 238 331
a 323 208
a 330 329
a 330 238
a 329 330
a 329 238
a 329 331
a 329 332
a 331 329
a 331 238
a 332 329
