p sp 198 2742
a 8 1
a 8 35
a 8 46
a 8 60
a 8 89
a 8 95
a 8 98
a 8 99
a 8 100
a 8 101
a 8 110
a 8 118
a 8 121
a 8 131
a 8 132
a 8 136
a 8 142
a 8 154
a 8 168
a 8 171
a 8 174
a 1 24
a 1 35
a 1 42
a 1 46
a 1 60
a 1 74
a 1 78
a 1 81
a 1 95
a 1 98
a 1 99
a 1 100
a 1 101
a 1 103
a 1 104
a 1 108
a 1 131
a 1 132
a 1 154
a 1 159
a 1 168
a 1 171
a 24 15
a 24 16
a 24 20
a 24 35
a 24 42
a 24 43
a 24 46
a 24 48
a 24 60
a 24 74
a 24 78
a 24 80
a 24 81
a 24 91
a 24 99
a 24 100
a 24 103
a 24 104
a 24 105
a 24 107
a 24 108
a 24 132
a 24 136
a 24 154
a 24 168
a 24 171
a 24 174
a 24 182
a 35 32
a 35 33
a 35 40
a 35 44
a 35 46
a 35 58
a 35 60
a 35 62
a 35 63
a 35 64
a 35 65
a 35 66
a 35 68
a 35 74
a 35 78
a 35 95
a 35 98
a 35 99
a 35 100
a 35 101
a 35 103
a 35 104
a 35 105
a 35 106
a 35 107
a 35 108
a 35 109
a 35 110
a 35 122
a 35 123
a 35 131
a 35 132
a 35 135
a 35 154
a 35 166
a 35 168
a 35 170
a 35 171
a 35 179
a 35 187
a 42 46
a 42 50
a 42 81
a 42 104
a 42 106
a 42 123
a 42 136
a 42 159
a 42 182
a 42 183
a 46 50
a 46 60
a 46 81
a 46 95
a 46 98
a 46 99
a 46 100
a 46 101
a 46 104
a 46 106
a 46 123
a 46 131
a 46 132
a 46 154
a 46 159
a 46 168
a 46 171
a 46 183
a 60 7
a 60 10
a 60 12
a 60 14
a 60 18
a 60 19
a 60 20
a 60 23
a 60 31
a 60 32
a 60 33
a 60 36
a 60 40
a 60 44
a 60 49
a 60 50
a 60 52
a 60 53
a 60 54
a 60 55
a 60 56
a 60 57
a 60 58
a 60 61
a 60 62
a 60 63
a 60 64
a 60 65
a 60 66
a 60 68
a 60 69
a 60 70
a 60 72
a 60 78
a 60 80
a 60 81
a 60 83
a 60 88
a 60 89
a 60 91
a 60 93
a 60 94
a 60 95
a 60 98
a 60 99
a 60 100
a 60 101
a 60 105
a 60 106
a 60 107
a 60 108
a 60 109
a 60 110
a 60 111
a 60 112
a 60 114
a 60 118
a 60 121
a 60 122
a 60 123
a 60 125
a 60 127
a 60 129
a 60 130
a 60 131
a 60 132
a 60 135
a 60 136
a 60 141
a 60 142
a 60 146
a 60 150
a 60 151
a 60 154
a 60 158
a 60 161
a 60 164
a 60 166
a 60 168
a 60 171
a 60 174
a 60 179
a 60 183
a 60 187
a 60 190
a 60 192
a 60 193
a 60 194
a 60 195
a 60 196
a 60 197
a 74 7
a 74 10
a 74 71
a 74 72
a 74 78
a 74 87
a 74 103
a 74 104
a 74 108
a 74 112
a 74 114
a 74 150
a 74 154
a 74 161
a 74 164
a 74 168
a 74 171
a 78 16
a 78 20
a 78 43
a 78 80
a 78 91
a 78 95
a 78 99
a 78 100
a 78 103
a 78 104
a 78 108
a 78 136
a 78 137
a 78 154
a 78 158
a 78 168
a 78 171
a 78 174
a 78 179
a 78 182
a 78 188
a 81 7
a 81 15
a 81 16
a 81 22
a 81 36
a 81 43
a 81 48
a 81 50
a 81 53
a 81 55
a 81 56
a 81 67
a 81 83
a 81 98
a 81 99
a 81 100
a 81 101
a 81 104
a 81 105
a 81 106
a 81 108
a 81 123
a 81 131
a 81 132
a 81 136
a 81 150
a 81 158
a 81 164
a 81 170
a 81 174
a 81 178
a 81 182
a 81 183
a 81 194
a 81 195
a 81 196
a 81 197
a 95 7
a 95 69
a 95 70
a 95 80
a 95 89
a 95 91
a 95 93
a 95 94
a 95 98
a 95 99
a 95 100
a 95 101
a 95 108
a 95 110
a 95 111
a 95 122
a 95 125
a 95 127
a 95 131
a 95 132
a 95 135
a 95 136
a 95 141
a 95 142
a 95 146
a 95 154
a 95 158
a 95 168
a 95 171
a 95 174
a 95 179
a 95 190
a 95 192
a 95 193
a 98 22
a 98 32
a 98 33
a 98 40
a 98 43
a 98 44
a 98 58
a 98 62
a 98 63
a 98 64
a 98 65
a 98 66
a 98 83
a 98 99
a 98 100
a 98 101
a 98 105
a 98 106
a 98 107
a 98 108
a 98 109
a 98 110
a 98 122
a 98 123
a 98 131
a 98 132
a 98 135
a 98 136
a 98 154
a 98 164
a 98 168
a 98 170
a 98 171
a 98 174
a 98 178
a 98 179
a 98 182
a 98 194
a 98 197
a 99 22
a 99 32
a 99 33
a 99 40
a 99 43
a 99 44
a 99 58
a 99 59
a 99 62
a 99 63
a 99 64
a 99 65
a 99 66
a 99 68
a 99 69
a 99 70
a 99 73
a 99 82
a 99 83
a 99 88
a 99 100
a 99 101
a 99 105
a 99 106
a 99 107
a 99 108
a 99 109
a 99 110
a 99 118
a 99 121
a 99 122
a 99 123
a 99 131
a 99 132
a 99 135
a 99 136
a 99 143
a 99 154
a 99 164
a 99 166
a 99 168
a 99 170
a 99 171
a 99 174
a 99 178
a 99 179
a 99 182
a 99 187
a 99 194
a 99 197
a 100 22
a 100 32
a 100 33
a 100 40
a 100 43
a 100 44
a 100 58
a 100 59
a 100 62
a 100 63
a 100 64
a 100 65
a 100 66
a 100 83
a 100 101
a 100 105
a 100 106
a 100 107
a 100 108
a 100 109
a 100 110
a 100 122
a 100 123
a 100 131
a 100 132
a 100 135
a 100 136
a 100 154
a 100 164
a 100 168
a 100 170
a 100 171
a 100 174
a 100 178
a 100 179
a 100 182
a 100 194
a 100 197
a 101 22
a 101 32
a 101 33
a 101 40
a 101 43
a 101 44
a 101 58
a 101 62
a 101 63
a 101 64
a 101 65
a 101 66
a 101 68
a 101 83
a 101 105
a 101 106
a 101 107
a 101 108
a 101 109
a 101 110
a 101 122
a 101 123
a 101 131
a 101 132
a 101 135
a 101 136
a 101 154
a 101 164
a 101 166
a 101 168
a 101 170
a 101 171
a 101 174
a 101 178
a 101 179
a 101 182
a 101 187
a 101 194
a 101 197
a 103 7
a 103 10
a 103 67
a 103 71
a 103 72
a 103 83
a 103 87
a 103 104
a 103 108
a 103 112
a 103 114
a 103 150
a 103 154
a 103 161
a 103 164
a 103 168
a 103 171
a 103 178
a 104 15
a 104 16
a 104 48
a 104 91
a 104 105
a 104 107
a 104 108
a 104 154
a 104 159
a 104 168
a 104 171
a 108 7
a 108 22
a 108 32
a 108 33
a 108 40
a 108 43
a 108 44
a 108 58
a 108 62
a 108 63
a 108 64
a 108 65
a 108 66
a 108 69
a 108 70
a 108 83
a 108 93
a 108 94
a 108 105
a 108 106
a 108 107
a 108 109
a 108 110
a 108 111
a 108 122
a 108 123
a 108 125
a 108 131
a 108 132
a 108 135
a 108 136
a 108 146
a 108 154
a 108 164
a 108 168
a 108 170
a 108 171
a 108 174
a 108 178
a 108 179
a 108 182
a 108 190
a 108 192
a 108 193
a 108 194
a 108 197
a 131 18
a 131 22
a 131 32
a 131 33
a 131 40
a 131 43
a 131 44
a 131 50
a 131 53
a 131 56
a 131 58
a 131 62
a 131 63
a 131 64
a 131 65
a 131 66
a 131 83
a 131 88
a 131 105
a 131 106
a 131 107
a 131 109
a 131 110
a 131 114
a 131 122
a 131 123
a 131 132
a 131 135
a 131 136
a 131 139
a 131 154
a 131 158
a 131 164
a 131 168
a 131 170
a 131 171
a 131 174
a 131 178
a 131 179
a 131 182
a 131 183
a 131 194
a 131 196
a 131 197
a 132 7
a 132 18
a 132 22
a 132 32
a 132 33
a 132 40
a 132 43
a 132 44
a 132 50
a 132 53
a 132 56
a 132 58
a 132 62
a 132 63
a 132 64
a 132 65
a 132 66
a 132 68
a 132 69
a 132 70
a 132 83
a 132 88
a 132 89
a 132 93
a 132 94
a 132 105
a 132 106
a 132 107
a 132 109
a 132 110
a 132 111
a 132 114
a 132 118
a 132 121
a 132 122
a 132 123
a 132 125
a 132 135
a 132 136
a 132 141
a 132 142
a 132 146
a 132 154
a 132 158
a 132 164
a 132 166
a 132 168
a 132 170
a 132 171
a 132 174
a 132 178
a 132 179
a 132 182
a 132 183
a 132 187
a 132 190
a 132 192
a 132 193
a 132 194
a 132 196
a 132 197
a 154 32
a 154 33
a 154 40
a 154 44
a 154 58
a 154 62
a 154 63
a 154 64
a 154 65
a 154 66
a 154 68
a 154 105
a 154 106
a 154 107
a 154 109
a 154 110
a 154 122
a 154 123
a 154 135
a 154 166
a 154 168
a 154 170
a 154 171
a 154 179
a 154 187
a 159 67
a 159 83
a 159 84
a 159 134
a 159 135
a 159 195
a 168 7
a 168 9
a 168 20
a 168 23
a 168 32
a 168 33
a 168 40
a 168 44
a 168 50
a 168 54
a 168 58
a 168 62
a 168 63
a 168 64
a 168 65
a 168 66
a 168 68
a 168 69
a 168 70
a 168 71
a 168 80
a 168 83
a 168 91
a 168 93
a 168 94
a 168 105
a 168 106
a 168 107
a 168 109
a 168 110
a 168 111
a 168 116
a 168 117
a 168 118
a 168 121
a 168 122
a 168 123
a 168 125
a 168 135
a 168 136
a 168 137
a 168 142
a 168 146
a 168 153
a 168 158
a 168 166
a 168 170
a 168 171
a 168 179
a 168 187
a 168 190
a 168 192
a 168 193
a 168 194
a 168 195
a 171 7
a 171 44
a 171 68
a 171 69
a 171 70
a 171 89
a 171 93
a 171 94
a 171 110
a 171 111
a 171 122
a 171 125
a 171 127
a 171 135
a 171 136
a 171 141
a 171 142
a 171 146
a 171 158
a 171 166
a 171 174
a 171 187
a 171 190
a 171 192
a 171 193
a 14 2
a 14 7
a 14 10
a 14 54
a 14 61
a 14 69
a 14 70
a 14 87
a 14 96
a 14 112
a 14 114
a 14 127
a 14 130
a 14 141
a 14 150
a 14 151
a 14 158
a 14 161
a 14 164
a 14 185
a 14 186
a 14 192
a 14 194
a 14 195
a 2 54
a 2 150
a 54 5
a 54 12
a 54 18
a 54 19
a 54 31
a 54 36
a 54 49
a 54 53
a 54 55
a 54 56
a 54 57
a 54 61
a 54 67
a 54 69
a 54 70
a 54 83
a 54 87
a 54 93
a 54 94
a 54 96
a 54 111
a 54 125
a 54 129
a 54 130
a 54 146
a 54 149
a 54 150
a 54 158
a 54 161
a 54 164
a 54 170
a 54 174
a 54 177
a 54 178
a 54 186
a 54 190
a 54 192
a 54 193
a 54 194
a 54 195
a 54 196
a 54 197
a 150 7
a 150 36
a 150 49
a 150 53
a 150 55
a 150 56
a 150 67
a 150 69
a 150 70
a 150 71
a 150 72
a 150 83
a 150 87
a 150 96
a 150 112
a 150 127
a 150 130
a 150 136
a 150 142
a 150 149
a 150 151
a 150 158
a 150 161
a 150 164
a 150 170
a 150 178
a 150 185
a 150 186
a 150 192
a 150 194
a 150 195
a 150 196
a 115 3
a 115 148
a 115 152
a 115 153
a 115 157
a 115 167
a 115 172
a 3 153
a 3 167
a 3 172
a 153 4
a 153 5
a 153 9
a 153 13
a 153 25
a 153 26
a 153 27
a 153 28
a 153 29
a 153 37
a 153 39
a 153 51
a 153 71
a 153 76
a 153 86
a 153 90
a 153 92
a 153 96
a 153 111
a 153 116
a 153 117
a 153 118
a 153 121
a 153 122
a 153 124
a 153 126
a 153 128
a 153 137
a 153 140
a 153 144
a 153 147
a 153 148
a 153 149
a 153 163
a 153 167
a 153 172
a 153 181
a 153 198
a 167 4
a 167 5
a 167 13
a 167 18
a 167 26
a 167 27
a 167 28
a 167 29
a 167 47
a 167 51
a 167 70
a 167 73
a 167 75
a 167 77
a 167 79
a 167 85
a 167 86
a 167 88
a 167 90
a 167 96
a 167 97
a 167 102
a 167 126
a 167 128
a 167 133
a 167 136
a 167 138
a 167 140
a 167 145
a 167 147
a 167 149
a 167 155
a 167 156
a 167 163
a 167 169
a 167 172
a 167 173
a 167 176
a 167 184
a 167 189
a 167 191
a 167 198
a 172 4
a 172 5
a 172 13
a 172 18
a 172 26
a 172 27
a 172 28
a 172 29
a 172 51
a 172 73
a 172 75
a 172 76
a 172 77
a 172 79
a 172 86
a 172 88
a 172 90
a 172 96
a 172 97
a 172 102
a 172 126
a 172 128
a 172 136
a 172 138
a 172 140
a 172 144
a 172 147
a 172 149
a 172 156
a 172 163
a 172 169
a 172 173
a 172 176
a 172 184
a 172 189
a 172 191
a 5 4
a 5 13
a 5 19
a 5 21
a 5 26
a 5 27
a 5 28
a 5 29
a 5 51
a 5 53
a 5 57
a 5 73
a 5 75
a 5 76
a 5 77
a 5 79
a 5 85
a 5 86
a 5 90
a 5 96
a 5 97
a 5 102
a 5 124
a 5 126
a 5 128
a 5 136
a 5 138
a 5 140
a 5 144
a 5 147
a 5 149
a 5 155
a 5 156
a 5 163
a 5 169
a 5 173
a 5 176
a 5 189
a 5 191
a 5 194
a 5 196
a 5 197
a 4 13
a 4 26
a 4 77
a 4 85
a 4 102
a 4 138
a 4 147
a 4 156
a 4 169
a 4 173
a 4 176
a 4 189
a 13 25
a 13 26
a 13 28
a 13 73
a 13 85
a 13 86
a 13 92
a 13 102
a 13 128
a 13 140
a 13 147
a 13 148
a 13 149
a 13 155
a 13 156
a 13 169
a 13 173
a 13 176
a 13 189
a 13 191
a 26 28
a 26 29
a 26 73
a 26 77
a 26 85
a 26 86
a 26 90
a 26 96
a 26 102
a 26 124
a 26 128
a 26 138
a 26 140
a 26 147
a 26 149
a 26 155
a 26 156
a 26 169
a 26 173
a 26 176
a 26 178
a 26 184
a 26 189
a 26 191
a 26 198
a 77 18
a 77 28
a 77 29
a 77 41
a 77 45
a 77 73
a 77 85
a 77 86
a 77 88
a 77 90
a 77 96
a 77 97
a 77 102
a 77 124
a 77 128
a 77 136
a 77 138
a 77 140
a 77 147
a 77 149
a 77 169
a 77 173
a 77 184
a 77 191
a 85 28
a 85 73
a 85 86
a 85 102
a 85 128
a 85 140
a 85 147
a 85 149
a 85 155
a 85 156
a 85 169
a 85 189
a 85 191
a 102 28
a 102 86
a 102 128
a 102 138
a 102 140
a 102 147
a 102 156
a 102 169
a 102 173
a 102 176
a 102 189
a 138 28
a 138 29
a 138 86
a 138 90
a 138 96
a 138 97
a 138 124
a 138 128
a 138 136
a 138 145
a 138 147
a 138 149
a 138 155
a 138 169
a 138 173
a 138 178
a 147 18
a 147 27
a 147 28
a 147 29
a 147 51
a 147 73
a 147 75
a 147 76
a 147 79
a 147 86
a 147 88
a 147 90
a 147 96
a 147 97
a 147 126
a 147 128
a 147 136
a 147 140
a 147 144
a 147 149
a 147 156
a 147 169
a 147 173
a 147 174
a 147 176
a 147 184
a 147 189
a 147 191
a 156 28
a 156 73
a 156 86
a 156 128
a 156 133
a 156 140
a 156 149
a 156 155
a 156 169
a 156 173
a 156 176
a 156 189
a 156 191
a 169 29
a 169 86
a 169 90
a 169 96
a 169 97
a 169 128
a 169 140
a 169 149
a 169 173
a 169 176
a 169 189
a 173 28
a 173 86
a 173 90
a 173 96
a 173 128
a 173 140
a 173 149
a 173 163
a 173 176
a 173 184
a 173 189
a 173 191
a 176 28
a 176 29
a 176 86
a 176 90
a 176 96
a 176 124
a 176 128
a 176 140
a 176 149
a 176 184
a 176 189
a 176 192
a 176 198
a 189 9
a 189 11
a 189 23
a 189 28
a 189 32
a 189 38
a 189 73
a 189 80
a 189 86
a 189 128
a 189 135
a 189 139
a 189 140
a 189 149
a 189 155
a 189 162
a 189 179
a 189 191
a 19 7
a 19 12
a 19 18
a 19 20
a 19 31
a 19 49
a 19 53
a 19 55
a 19 56
a 19 57
a 19 61
a 19 70
a 19 129
a 19 130
a 19 136
a 19 185
a 19 192
a 19 194
a 19 195
a 19 196
a 19 197
a 27 29
a 27 51
a 27 76
a 27 96
a 27 126
a 27 128
a 27 144
a 27 149
a 28 29
a 28 73
a 28 86
a 28 90
a 28 96
a 28 124
a 28 128
a 28 140
a 28 149
a 28 155
a 28 184
a 28 191
a 28 198
a 29 18
a 29 51
a 29 73
a 29 76
a 29 86
a 29 88
a 29 90
a 29 96
a 29 97
a 29 124
a 29 126
a 29 128
a 29 136
a 29 140
a 29 144
a 29 149
a 29 184
a 29 191
a 29 198
a 51 39
a 51 75
a 51 76
a 51 79
a 51 96
a 51 126
a 51 128
a 51 136
a 51 144
a 51 149
a 51 174
a 51 181
a 53 7
a 53 10
a 53 11
a 53 12
a 53 18
a 53 31
a 53 36
a 53 49
a 53 50
a 53 52
a 53 55
a 53 56
a 53 57
a 53 61
a 53 67
a 53 71
a 53 83
a 53 88
a 53 111
a 53 112
a 53 113
a 53 114
a 53 129
a 53 149
a 53 158
a 53 161
a 53 164
a 53 170
a 53 178
a 53 183
a 53 194
a 53 195
a 53 196
a 53 197
a 57 7
a 57 10
a 57 11
a 57 12
a 57 18
a 57 31
a 57 49
a 57 55
a 57 56
a 57 61
a 57 70
a 57 71
a 57 83
a 57 89
a 57 111
a 57 112
a 57 113
a 57 114
a 57 121
a 57 129
a 57 130
a 57 136
a 57 142
a 57 158
a 57 161
a 57 164
a 57 185
a 57 192
a 57 194
a 57 195
a 57 196
a 57 197
a 73 12
a 73 18
a 73 69
a 73 70
a 73 86
a 73 88
a 73 90
a 73 96
a 73 110
a 73 128
a 73 136
a 73 140
a 73 143
a 73 149
a 73 155
a 73 174
a 73 184
a 73 191
a 75 76
a 75 79
a 75 86
a 75 96
a 75 126
a 75 128
a 75 136
a 75 144
a 75 149
a 75 163
a 75 174
a 75 198
a 76 79
a 76 96
a 76 126
a 76 128
a 76 136
a 76 144
a 76 149
a 76 174
a 79 49
a 79 86
a 79 96
a 79 118
a 79 126
a 79 128
a 79 136
a 79 142
a 79 143
a 79 144
a 79 149
a 79 163
a 79 174
a 86 18
a 86 41
a 86 45
a 86 69
a 86 70
a 86 88
a 86 90
a 86 96
a 86 97
a 86 124
a 86 128
a 86 136
a 86 140
a 86 149
a 86 155
a 86 163
a 86 184
a 86 191
a 86 198
a 90 18
a 90 37
a 90 49
a 90 69
a 90 83
a 90 88
a 90 96
a 90 97
a 90 124
a 90 125
a 90 128
a 90 133
a 90 136
a 90 140
a 90 149
a 90 184
a 90 191
a 90 198
a 96 18
a 96 41
a 96 45
a 96 69
a 96 70
a 96 87
a 96 88
a 96 97
a 96 124
a 96 125
a 96 126
a 96 128
a 96 130
a 96 136
a 96 140
a 96 142
a 96 144
a 96 149
a 96 158
a 96 161
a 96 163
a 96 164
a 96 184
a 96 186
a 96 191
a 96 192
a 96 194
a 96 198
a 97 41
a 97 45
a 97 88
a 97 124
a 97 128
a 97 136
a 97 149
a 124 128
a 124 140
a 124 184
a 124 198
a 126 128
a 126 136
a 126 144
a 126 149
a 126 174
a 128 18
a 128 88
a 128 136
a 128 140
a 128 144
a 128 149
a 128 155
a 128 184
a 128 191
a 128 192
a 136 7
a 136 17
a 136 18
a 136 20
a 136 22
a 136 41
a 136 43
a 136 45
a 136 49
a 136 59
a 136 65
a 136 66
a 136 67
a 136 69
a 136 70
a 136 82
a 136 83
a 136 84
a 136 88
a 136 89
a 136 93
a 136 94
a 136 105
a 136 110
a 136 114
a 136 118
a 136 121
a 136 122
a 136 125
a 136 127
a 136 129
a 136 130
a 136 137
a 136 140
a 136 141
a 136 142
a 136 143
a 136 144
a 136 146
a 136 149
a 136 151
a 136 158
a 136 161
a 136 162
a 136 163
a 136 164
a 136 170
a 136 174
a 136 175
a 136 177
a 136 178
a 136 182
a 136 183
a 136 184
a 136 185
a 136 188
a 136 190
a 136 191
a 136 192
a 136 193
a 136 194
a 136 196
a 136 197
a 140 18
a 140 88
a 140 149
a 140 155
a 140 184
a 140 191
a 140 198
a 144 149
a 144 174
a 144 198
a 149 18
a 149 25
a 149 39
a 149 49
a 149 67
a 149 83
a 149 88
a 149 89
a 149 142
a 149 155
a 149 160
a 149 163
a 149 174
a 149 178
a 149 181
a 149 184
a 149 191
a 149 194
a 149 195
a 155 37
a 155 47
a 155 133
a 155 178
a 155 180
a 155 191
a 163 92
a 191 18
a 191 88
a 191 184
a 194 7
a 194 12
a 194 18
a 194 22
a 194 31
a 194 36
a 194 43
a 194 49
a 194 55
a 194 56
a 194 61
a 194 67
a 194 69
a 194 70
a 194 83
a 194 84
a 194 87
a 194 105
a 194 111
a 194 118
a 194 129
a 194 130
a 194 158
a 194 161
a 194 164
a 194 170
a 194 174
a 194 175
a 194 178
a 194 182
a 194 183
a 194 186
a 194 192
a 194 195
a 194 196
a 194 197
a 196 7
a 196 10
a 196 11
a 196 12
a 196 18
a 196 31
a 196 36
a 196 49
a 196 50
a 196 52
a 196 55
a 196 56
a 196 61
a 196 67
a 196 71
a 196 83
a 196 88
a 196 89
a 196 111
a 196 112
a 196 113
a 196 114
a 196 121
a 196 129
a 196 142
a 196 158
a 196 161
a 196 164
a 196 170
a 196 178
a 196 183
a 196 195
a 196 197
a 197 7
a 197 12
a 197 18
a 197 22
a 197 31
a 197 36
a 197 43
a 197 55
a 197 56
a 197 61
a 197 83
a 197 105
a 197 129
a 197 164
a 197 170
a 197 174
a 197 178
a 197 182
a 197 195
a 152 6
a 152 157
a 6 157
a 157 180
a 10 7
a 10 11
a 10 49
a 10 61
a 10 69
a 10 70
a 10 71
a 10 87
a 10 112
a 10 113
a 10 114
a 10 127
a 10 130
a 10 141
a 10 151
a 10 158
a 10 161
a 10 164
a 10 192
a 10 195
a 7 11
a 7 36
a 7 49
a 7 55
a 7 56
a 7 61
a 7 67
a 7 69
a 7 70
a 7 71
a 7 72
a 7 83
a 7 87
a 7 93
a 7 94
a 7 111
a 7 112
a 7 113
a 7 114
a 7 122
a 7 125
a 7 127
a 7 129
a 7 130
a 7 141
a 7 146
a 7 151
a 7 158
a 7 161
a 7 164
a 7 170
a 7 177
a 7 178
a 7 185
a 7 190
a 7 192
a 7 193
a 7 195
a 11 9
a 11 23
a 11 32
a 11 38
a 11 49
a 11 71
a 11 80
a 11 112
a 11 113
a 11 114
a 11 135
a 11 139
a 11 158
a 11 161
a 11 162
a 11 164
a 11 179
a 36 49
a 36 55
a 36 56
a 36 67
a 36 70
a 36 72
a 36 83
a 36 87
a 36 129
a 36 158
a 36 161
a 36 164
a 36 170
a 36 174
a 36 178
a 36 192
a 36 195
a 49 12
a 49 52
a 49 67
a 49 69
a 49 70
a 49 71
a 49 83
a 49 112
a 49 113
a 49 114
a 49 118
a 49 121
a 49 125
a 49 127
a 49 130
a 49 142
a 49 143
a 49 158
a 49 161
a 49 162
a 49 164
a 49 174
a 49 178
a 49 185
a 49 192
a 49 195
a 55 12
a 55 18
a 55 31
a 55 56
a 55 61
a 55 67
a 55 83
a 55 129
a 55 158
a 55 164
a 55 170
a 55 178
a 55 195
a 56 12
a 56 18
a 56 31
a 56 50
a 56 61
a 56 67
a 56 83
a 56 88
a 56 111
a 56 114
a 56 129
a 56 158
a 56 164
a 56 170
a 56 178
a 56 183
a 56 195
a 61 12
a 61 18
a 61 31
a 61 32
a 61 69
a 61 70
a 61 106
a 61 111
a 61 112
a 61 114
a 61 123
a 61 127
a 61 129
a 61 130
a 61 141
a 61 151
a 61 158
a 61 177
a 61 192
a 61 195
a 67 70
a 67 83
a 67 84
a 67 87
a 67 127
a 67 134
a 67 135
a 67 158
a 67 164
a 67 170
a 67 174
a 67 178
a 67 192
a 67 195
a 69 70
a 69 87
a 69 88
a 69 93
a 69 94
a 69 109
a 69 110
a 69 111
a 69 112
a 69 114
a 69 118
a 69 121
a 69 122
a 69 125
a 69 127
a 69 130
a 69 141
a 69 142
a 69 143
a 69 146
a 69 151
a 69 158
a 69 161
a 69 164
a 69 174
a 69 175
a 69 177
a 69 183
a 69 186
a 69 190
a 69 192
a 69 193
a 69 195
a 70 20
a 70 34
a 70 83
a 70 87
a 70 88
a 70 93
a 70 94
a 70 110
a 70 111
a 70 112
a 70 114
a 70 118
a 70 121
a 70 122
a 70 125
a 70 127
a 70 130
a 70 141
a 70 142
a 70 143
a 70 146
a 70 151
a 70 158
a 70 161
a 70 164
a 70 170
a 70 174
a 70 175
a 70 177
a 70 178
a 70 183
a 70 185
a 70 186
a 70 190
a 70 192
a 70 193
a 70 195
a 71 9
a 71 12
a 71 72
a 71 83
a 71 111
a 71 112
a 71 113
a 71 114
a 71 116
a 71 117
a 71 118
a 71 121
a 71 122
a 71 137
a 71 158
a 71 161
a 71 164
a 71 195
a 72 161
a 72 164
a 83 12
a 83 22
a 83 34
a 83 43
a 83 52
a 83 84
a 83 87
a 83 89
a 83 105
a 83 109
a 83 111
a 83 114
a 83 118
a 83 121
a 83 127
a 83 134
a 83 135
a 83 137
a 83 141
a 83 142
a 83 158
a 83 164
a 83 170
a 83 174
a 83 178
a 83 182
a 83 185
a 83 192
a 83 195
a 87 20
a 87 112
a 87 114
a 87 130
a 87 158
a 87 161
a 87 164
a 87 186
a 87 192
a 87 195
a 93 94
a 93 111
a 93 114
a 93 118
a 93 121
a 93 122
a 93 125
a 93 127
a 93 130
a 93 146
a 93 175
a 93 177
a 93 183
a 93 190
a 93 192
a 93 193
a 94 111
a 94 114
a 94 118
a 94 121
a 94 122
a 94 125
a 94 130
a 94 146
a 94 175
a 94 177
a 94 183
a 94 190
a 94 192
a 94 193
a 111 9
a 111 23
a 111 31
a 111 32
a 111 50
a 111 106
a 111 116
a 111 117
a 111 118
a 111 121
a 111 122
a 111 123
a 111 125
a 111 137
a 111 146
a 111 170
a 111 190
a 111 192
a 111 193
a 111 195
a 112 113
a 112 114
a 112 127
a 112 130
a 112 141
a 112 151
a 112 158
a 112 161
a 112 164
a 112 192
a 112 195
a 113 114
a 113 158
a 113 161
a 113 164
a 114 12
a 114 18
a 114 50
a 114 88
a 114 125
a 114 127
a 114 130
a 114 141
a 114 142
a 114 146
a 114 151
a 114 158
a 114 161
a 114 164
a 114 183
a 114 190
a 114 192
a 114 193
a 114 195
a 122 9
a 122 32
a 122 33
a 122 40
a 122 43
a 122 44
a 122 58
a 122 59
a 122 62
a 122 63
a 122 64
a 122 65
a 122 66
a 122 82
a 122 105
a 122 106
a 122 107
a 122 109
a 122 110
a 122 116
a 122 117
a 122 118
a 122 121
a 122 123
a 122 125
a 122 135
a 122 137
a 122 143
a 122 146
a 122 179
a 122 190
a 122 192
a 122 193
a 125 118
a 125 121
a 125 130
a 125 142
a 125 146
a 125 151
a 125 175
a 125 177
a 125 183
a 125 190
a 125 192
a 125 193
a 127 89
a 127 130
a 127 141
a 127 142
a 127 151
a 127 158
a 127 164
a 127 174
a 127 178
a 127 185
a 127 192
a 127 195
a 129 12
a 129 18
a 129 31
a 129 84
a 129 118
a 129 170
a 129 175
a 129 183
a 129 195
a 130 141
a 130 146
a 130 151
a 130 158
a 130 161
a 130 164
a 130 177
a 130 185
a 130 186
a 130 190
a 130 192
a 130 193
a 130 195
a 141 89
a 141 142
a 141 151
a 141 158
a 141 174
a 141 192
a 141 195
a 146 118
a 146 121
a 146 151
a 146 175
a 146 177
a 146 183
a 146 190
a 146 192
a 146 193
a 151 158
a 151 177
a 151 185
a 151 190
a 151 192
a 151 193
a 151 195
a 158 18
a 158 20
a 158 43
a 158 50
a 158 59
a 158 84
a 158 88
a 158 89
a 158 121
a 158 137
a 158 142
a 158 161
a 158 164
a 158 170
a 158 174
a 158 178
a 158 183
a 158 186
a 158 188
a 158 192
a 158 195
a 161 142
a 161 164
a 161 186
a 161 192
a 164 22
a 164 43
a 164 105
a 164 142
a 164 170
a 164 174
a 164 178
a 164 182
a 164 186
a 164 192
a 164 195
a 170 12
a 170 22
a 170 31
a 170 43
a 170 64
a 170 65
a 170 66
a 170 84
a 170 105
a 170 109
a 170 110
a 170 118
a 170 174
a 170 175
a 170 178
a 170 182
a 170 183
a 170 192
a 170 195
a 177 109
a 177 118
a 177 121
a 177 175
a 177 183
a 177 190
a 177 192
a 177 193
a 178 22
a 178 43
a 178 105
a 178 174
a 178 182
a 178 192
a 178 195
a 185 142
a 185 165
a 185 192
a 190 118
a 190 121
a 190 175
a 190 183
a 190 192
a 190 193
a 192 34
a 192 118
a 192 121
a 192 174
a 192 175
a 192 183
a 192 186
a 192 193
a 192 195
a 193 118
a 193 121
a 193 142
a 193 175
a 193 183
a 195 12
a 195 18
a 195 31
a 195 84
a 195 134
a 195 135
a 89 118
a 89 121
a 89 142
a 89 174
a 110 32
a 110 33
a 110 40
a 110 44
a 110 50
a 110 58
a 110 62
a 110 63
a 110 64
a 110 65
a 110 66
a 110 88
a 110 105
a 110 106
a 110 107
a 110 109
a 110 123
a 110 135
a 110 139
a 110 143
a 110 174
a 110 179
a 110 182
a 118 9
a 118 43
a 118 59
a 118 82
a 118 84
a 118 116
a 118 117
a 118 121
a 118 137
a 118 142
a 118 143
a 118 174
a 118 175
a 118 183
a 121 9
a 121 43
a 121 59
a 121 82
a 121 116
a 121 117
a 121 137
a 121 142
a 121 143
a 121 174
a 121 175
a 121 183
a 142 143
a 142 174
a 174 22
a 174 43
a 174 59
a 174 88
a 174 105
a 174 143
a 174 182
a 9 23
a 9 32
a 9 38
a 9 80
a 9 116
a 9 117
a 9 135
a 9 137
a 9 139
a 9 162
a 9 179
a 23 32
a 23 38
a 23 80
a 23 135
a 23 139
a 23 162
a 23 179
a 32 31
a 32 33
a 32 38
a 32 40
a 32 44
a 32 58
a 32 62
a 32 63
a 32 64
a 32 65
a 32 66
a 32 80
a 32 91
a 32 105
a 32 106
a 32 107
a 32 109
a 32 123
a 32 135
a 32 139
a 32 162
a 32 179
a 38 33
a 38 40
a 38 44
a 38 63
a 38 80
a 38 91
a 38 105
a 38 116
a 38 119
a 38 134
a 38 135
a 38 139
a 38 162
a 38 179
a 80 20
a 80 39
a 80 91
a 80 135
a 80 139
a 80 162
a 80 179
a 80 181
a 116 33
a 116 39
a 116 40
a 116 91
a 116 117
a 116 119
a 116 134
a 116 135
a 116 137
a 116 179
a 116 181
a 117 25
a 117 137
a 117 179
a 117 183
a 135 33
a 135 40
a 135 44
a 135 58
a 135 62
a 135 63
a 135 64
a 135 65
a 135 66
a 135 68
a 135 84
a 135 91
a 135 105
a 135 106
a 135 107
a 135 109
a 135 119
a 135 123
a 135 134
a 135 139
a 135 162
a 135 166
a 135 179
a 135 187
a 137 20
a 137 188
a 139 44
a 139 50
a 139 64
a 139 65
a 139 66
a 139 91
a 139 162
a 139 179
a 162 43
a 162 58
a 162 59
a 162 107
a 162 123
a 162 179
a 162 187
a 162 188
a 179 33
a 179 40
a 179 44
a 179 50
a 179 58
a 179 62
a 179 63
a 179 64
a 179 65
a 179 66
a 179 91
a 179 105
a 179 106
a 179 107
a 179 109
a 179 119
a 179 123
a 179 134
a 179 183
a 18 12
a 18 31
a 18 50
a 18 88
a 18 183
a 18 184
a 12 31
a 31 106
a 31 123
a 25 92
a 25 148
a 92 148
a 16 15
a 16 48
a 16 91
a 16 105
a 16 107
a 15 48
a 15 91
a 15 105
a 15 107
a 48 91
a 48 105
a 48 107
a 91 33
a 91 40
a 91 44
a 91 63
a 91 105
a 91 107
a 91 119
a 91 134
a 105 22
a 105 33
a 105 40
a 105 43
a 105 44
a 105 58
a 105 62
a 105 63
a 105 64
a 105 65
a 105 66
a 105 106
a 105 107
a 105 109
a 105 123
a 105 182
a 107 33
a 107 40
a 107 44
a 107 58
a 107 62
a 107 63
a 107 64
a 107 65
a 107 66
a 107 106
a 107 109
a 107 123
a 107 187
a 107 188
a 62 17
a 62 33
a 62 40
a 62 44
a 62 58
a 62 63
a 62 64
a 62 65
a 62 66
a 62 106
a 62 109
a 62 123
a 50 44
a 50 64
a 50 65
a 50 66
a 50 68
a 50 88
a 50 106
a 50 123
a 50 166
a 50 183
a 88 41
a 88 45
a 88 52
a 88 143
a 88 183
a 88 184
a 183 68
a 183 84
a 183 106
a 183 123
a 183 166
a 183 175
a 183 182
a 184 198
a 43 22
a 43 59
a 43 82
a 43 143
a 43 182
a 22 182
a 182 66
a 34 30
a 106 33
a 106 40
a 106 44
a 106 58
a 106 63
a 106 64
a 106 65
a 106 66
a 106 109
a 106 123
a 106 187
a 106 188
a 123 33
a 123 40
a 123 44
a 123 58
a 123 63
a 123 64
a 123 65
a 123 66
a 123 109
a 123 187
a 123 188
a 33 40
a 33 44
a 33 58
a 33 63
a 33 64
a 33 65
a 33 66
a 33 109
a 33 119
a 33 134
a 40 44
a 40 58
a 40 63
a 40 64
a 40 65
a 40 66
a 40 109
a 40 119
a 40 134
a 44 58
a 44 63
a 44 64
a 44 65
a 44 66
a 44 68
a 44 109
a 44 166
a 44 187
a 58 63
a 58 64
a 58 65
a 58 66
a 58 109
a 58 187
a 58 188
a 63 64
a 63 65
a 63 66
a 63 109
a 64 65
a 64 66
a 64 109
a 65 66
a 65 109
a 66 109
a 119 120
a 119 134
a 134 84
a 68 166
a 68 187
a 166 187
a 187 188
a 37 133
a 37 180
a 133 180
a 180 47
a 39 181
a 45 41
a 59 82
a 59 143
a 82 143
a 84 175
