p sp 83 180
a 1 2
a 1 3
a 1 4
a 2 1
a 2 5
a 5 2
a 5 6
a 5 7
a 6 5
a 6 8
a 8 6
a 8 9
a 8 10
a 11 12
a 11 7
a 11 9
a 12 11
a 12 13
a 13 12
a 13 14
a 13 15
a 16 17
a 16 3
a 16 18
a 17 16
a 17 19
a 19 17
a 20 21
a 20 15
a 20 22
a 21 20
a 21 23
a 23 21
a 23 24
a 23 25
a 14 13
a 14 26
a 26 14
a 26 22
a 26 27
a 4 28
a 4 1
a 4 29
a 28 4
a 24 23
a 24 30
a 30 24
a 30 31
a 30 32
a 9 33
a 9 11
a 9 8
a 33 9
a 34 35
a 34 29
a 34 36
a 35 34
a 37 38
a 37 39
a 37 40
a 38 37
a 38 41
a 41 38
a 41 42
a 41 43
a 22 44
a 22 20
a 22 26
a 44 22
a 45 46
a 45 25
a 45 31
a 45 47
a 46 45
a 31 48
a 31 45
a 31 30
a 48 31
a 48 49
a 49 48
a 49 50
a 49 51
a 42 41
a 42 52
a 52 42
a 52 53
a 52 54
a 55 56
a 55 43
a 55 53
a 56 55
a 56 57
a 57 56
a 57 58
a 57 59
a 18 60
a 18 16
a 18 61
a 60 18
a 61 62
a 61 18
a 61 63
a 62 61
a 64 65
a 64 36
a 64 39
a 65 64
a 58 57
a 58 66
a 66 58
a 66 67
a 66 68
a 53 69
a 53 55
a 53 52
a 69 53
a 69 70
a 70 69
a 70 71
a 70 72
a 63 73
a 63 61
a 63 74
a 73 63
a 67 75
a 67 76
a 67 66
a 75 67
a 75 77
a 77 75
a 76 78
a 76 59
a 76 67
a 78 76
a 50 49
a 71 70
a 3 1
a 3 79
a 3 16
a 79 3
a 79 80
a 80 79
a 80 29
a 80 81
a 29 80
a 29 4
a 29 34
a 81 80
a 81 82
a 7 5
a 7 11
a 82 81
a 82 36
a 82 40
a 10 8
a 36 34
a 36 82
a 36 64
a 15 20
a 15 13
a 40 82
a 40 37
a 25 45
a 25 23
a 47 45
a 27 26
a 32 30
a 39 64
a 39 37
a 39 83
a 83 39
a 43 55
a 43 41
a 54 52
a 74 63
a 59 57
a 59 76
a 68 66
a 51 49
a 72 70
