p sp 1039 2610
a 1 2
a 1 3
a 2 1
a 2 4
a 2 5
a 2 6
a 2 7
a 2 8
a 2 9
a 2 10
a 3 1
a 3 11
a 4 2
a 4 12
a 4 13
a 4 14
a 4 15
a 5 2
a 5 16
a 5 17
a 6 2
a 6 18
a 6 19
a 6 20
a 6 21
a 6 22
a 7 2
a 7 23
a 7 24
a 7 25
a 7 26
a 8 2
a 8 27
a 8 28
a 8 13
a 8 17
a 9 2
a 9 23
a 9 29
a 9 11
a 9 17
a 10 2
a 10 30
a 12 4
a 12 31
a 12 19
a 12 15
a 12 32
a 13 4
a 13 8
a 13 28
a 13 33
a 14 4
a 14 34
a 15 4
a 15 12
a 15 31
a 15 35
a 15 36
a 31 12
a 31 37
a 31 38
a 31 15
a 19 12
a 19 6
a 19 39
a 19 40
a 32 12
a 32 41
a 32 42
a 37 31
a 37 43
a 37 44
a 38 31
a 38 45
a 38 46
a 43 37
a 43 47
a 43 35
a 43 48
a 43 49
a 44 37
a 44 49
a 47 43
a 47 50
a 47 51
a 47 52
a 35 43
a 35 53
a 35 54
a 35 15
a 48 43
a 48 55
a 48 56
a 49 43
a 49 44
a 49 57
a 49 58
a 50 47
a 50 59
a 51 47
a 51 60
a 52 47
a 52 61
a 59 50
a 59 62
a 59 63
a 16 5
a 16 25
a 16 64
a 16 65
a 17 5
a 17 8
a 17 9
a 17 66
a 18 6
a 18 67
a 18 68
a 20 6
a 20 69
a 20 70
a 20 68
a 21 6
a 22 6
a 22 71
a 67 18
a 67 53
a 68 18
a 68 20
a 53 67
a 53 35
a 54 35
a 54 55
a 55 54
a 55 48
a 56 48
a 56 72
a 72 56
a 72 62
a 62 72
a 62 59
a 63 59
a 63 73
a 74 75
a 74 76
a 75 74
a 75 77
a 75 78
a 76 74
a 76 79
a 77 75
a 77 80
a 77 81
a 77 82
a 77 83
a 78 75
a 80 77
a 80 84
a 81 77
a 81 84
a 81 85
a 81 64
a 82 77
a 82 86
a 83 77
a 83 87
a 83 88
a 84 80
a 84 89
a 84 26
a 84 90
a 84 81
a 84 91
a 84 92
a 84 11
a 89 84
a 89 93
a 26 84
a 26 7
a 26 94
a 90 84
a 90 95
a 90 92
a 90 96
a 91 84
a 91 29
a 92 84
a 92 97
a 92 90
a 92 98
a 11 84
a 11 97
a 11 9
a 11 3
a 93 89
a 93 97
a 97 93
a 97 23
a 97 92
a 97 11
a 97 99
a 23 97
a 23 100
a 23 101
a 23 69
a 23 7
a 23 9
a 23 102
a 99 97
a 99 102
a 99 103
a 100 23
a 100 104
a 101 23
a 101 105
a 101 69
a 101 106
a 69 23
a 69 101
a 69 107
a 69 20
a 69 108
a 102 23
a 102 109
a 102 99
a 104 100
a 104 30
a 104 110
a 30 104
a 30 111
a 30 112
a 30 10
a 30 113
a 110 104
a 110 114
a 111 30
a 111 115
a 111 116
a 111 117
a 111 118
a 112 30
a 112 105
a 112 119
a 113 30
a 115 111
a 115 105
a 115 120
a 116 111
a 116 114
a 116 121
a 117 111
a 117 122
a 117 123
a 118 111
a 118 124
a 105 115
a 105 101
a 105 112
a 105 106
a 120 115
a 120 122
a 106 105
a 106 101
a 106 125
a 106 126
a 107 69
a 107 125
a 108 69
a 108 127
a 125 107
a 125 128
a 125 106
a 128 125
a 128 129
a 128 130
a 129 128
a 129 131
a 130 128
a 130 131
a 130 132
a 130 70
a 130 133
a 131 129
a 131 134
a 131 130
a 131 135
a 131 136
a 134 131
a 134 137
a 134 135
a 134 36
a 135 131
a 135 134
a 135 132
a 135 138
a 136 131
a 136 139
a 137 134
a 137 140
a 137 141
a 137 142
a 36 134
a 36 15
a 36 139
a 24 143
a 24 144
a 24 7
a 24 145
a 143 24
a 143 146
a 143 79
a 143 144
a 143 87
a 144 24
a 144 143
a 144 147
a 144 148
a 145 24
a 145 149
a 145 148
a 146 143
a 146 150
a 79 143
a 79 76
a 87 143
a 87 83
a 150 146
a 150 86
a 86 150
a 86 151
a 86 152
a 86 82
a 151 86
a 151 153
a 151 95
a 151 154
a 151 155
a 151 149
a 152 86
a 152 156
a 152 157
a 152 158
a 153 151
a 153 159
a 153 160
a 153 109
a 153 161
a 153 162
a 95 151
a 95 90
a 95 163
a 154 151
a 154 158
a 155 151
a 149 151
a 149 164
a 149 145
a 149 165
a 149 166
a 159 153
a 159 114
a 160 153
a 160 158
a 160 167
a 109 153
a 109 102
a 109 168
a 161 153
a 161 169
a 161 158
a 162 153
a 162 170
a 114 159
a 114 116
a 114 171
a 114 110
a 171 114
a 171 169
a 171 172
a 171 173
a 121 116
a 122 120
a 122 174
a 122 117
a 174 122
a 174 175
a 175 174
a 175 176
a 175 177
a 176 175
a 176 178
a 177 175
a 177 179
a 178 176
a 178 180
a 180 178
a 180 132
a 132 180
a 132 181
a 132 130
a 132 135
a 132 138
a 132 182
a 181 132
a 181 183
a 138 132
a 138 184
a 138 135
a 182 132
a 182 185
a 183 181
a 183 186
a 183 187
a 186 183
a 186 140
a 186 184
a 186 188
a 187 183
a 140 186
a 140 137
a 140 189
a 184 186
a 184 190
a 184 191
a 184 138
a 188 186
a 188 192
a 189 140
a 189 193
a 141 137
a 141 194
a 141 195
a 142 137
a 196 197
a 197 196
a 197 198
a 198 197
a 198 199
a 199 198
a 199 200
a 199 201
a 199 202
a 200 199
a 200 203
a 201 199
a 201 204
a 201 205
a 201 206
a 202 199
a 202 207
a 202 208
a 203 200
a 203 209
a 209 203
a 209 210
a 209 211
a 209 212
a 210 209
a 210 213
a 211 209
a 211 214
a 211 215
a 211 216
a 212 209
a 212 217
a 212 218
a 212 219
a 212 220
a 221 222
a 222 221
a 222 223
a 222 224
a 223 222
a 223 225
a 224 222
a 224 226
a 225 223
a 225 227
a 227 225
a 227 228
a 228 227
a 228 164
a 164 228
a 164 229
a 164 230
a 164 149
a 164 231
a 229 164
a 229 232
a 229 157
a 229 233
a 230 164
a 230 234
a 230 235
a 230 236
a 230 237
a 230 238
a 230 239
a 230 240
a 231 164
a 231 234
a 231 241
a 232 229
a 232 156
a 157 229
a 157 242
a 157 152
a 233 229
a 233 238
a 156 232
a 156 243
a 156 152
a 243 156
a 243 169
a 169 243
a 169 244
a 169 161
a 169 171
a 169 173
a 244 169
a 244 245
a 244 168
a 244 246
a 244 247
a 244 248
a 173 169
a 173 245
a 173 171
a 173 124
a 245 244
a 245 249
a 245 250
a 245 173
a 245 124
a 245 251
a 245 252
a 245 253
a 168 244
a 168 109
a 246 244
a 246 254
a 247 244
a 247 255
a 247 256
a 247 257
a 248 244
a 248 258
a 249 245
a 249 259
a 249 260
a 250 245
a 250 261
a 250 262
a 250 260
a 250 263
a 250 264
a 124 245
a 124 265
a 124 173
a 124 118
a 251 245
a 251 266
a 252 245
a 252 267
a 253 245
a 253 268
a 259 249
a 259 269
a 259 270
a 260 249
a 260 250
a 269 259
a 269 271
a 269 272
a 269 273
a 269 274
a 269 275
a 270 259
a 270 264
a 271 269
a 271 276
a 272 269
a 272 277
a 273 269
a 273 278
a 274 269
a 274 278
a 275 269
a 275 267
a 276 271
a 276 279
a 276 280
a 279 276
a 279 190
a 280 276
a 280 281
a 190 279
a 190 184
a 191 184
a 191 282
a 191 283
a 192 188
a 192 284
a 192 283
a 192 285
a 284 192
a 284 286
a 283 192
a 283 191
a 285 192
a 285 287
a 286 284
a 286 288
a 288 286
a 288 289
a 288 290
a 289 288
a 289 291
a 289 290
a 290 288
a 290 289
a 290 292
a 291 289
a 291 293
a 291 294
a 293 291
a 293 295
a 293 296
a 294 291
a 294 297
a 295 293
a 296 293
a 298 299
a 299 298
a 299 300
a 299 301
a 299 302
a 300 299
a 300 303
a 301 299
a 301 304
a 301 213
a 301 305
a 301 306
a 302 299
a 303 300
a 303 307
a 307 303
a 307 308
a 307 309
a 308 307
a 308 310
a 309 307
a 310 308
a 234 230
a 234 231
a 234 311
a 311 234
a 311 312
a 235 230
a 235 313
a 235 314
a 236 230
a 236 315
a 236 316
a 237 230
a 237 316
a 237 317
a 237 318
a 238 230
a 238 233
a 238 319
a 239 230
a 239 320
a 240 230
a 240 312
a 313 235
a 313 321
a 313 322
a 313 323
a 314 235
a 314 324
a 321 313
a 321 325
a 322 313
a 322 320
a 322 326
a 323 313
a 323 324
a 325 321
a 325 327
a 325 328
a 325 329
a 325 254
a 325 330
a 325 331
a 327 325
a 327 261
a 328 325
a 328 332
a 329 325
a 329 333
a 329 334
a 254 325
a 254 246
a 254 330
a 254 335
a 254 266
a 330 325
a 330 254
a 330 336
a 330 337
a 331 325
a 331 332
a 331 338
a 331 339
a 261 327
a 261 250
a 261 263
a 261 340
a 261 268
a 263 261
a 263 250
a 263 341
a 263 268
a 340 261
a 340 334
a 268 261
a 268 263
a 268 258
a 268 253
a 262 250
a 262 342
a 262 343
a 262 281
a 262 344
a 264 250
a 264 270
a 342 262
a 342 345
a 343 262
a 343 346
a 281 262
a 281 280
a 344 262
a 344 347
a 344 348
a 345 342
a 345 282
a 282 345
a 282 191
a 282 349
a 349 282
a 349 350
a 349 351
a 349 352
a 287 285
a 287 194
a 287 353
a 194 287
a 194 141
a 353 287
a 353 354
a 195 141
a 195 355
a 195 292
a 355 195
a 355 356
a 355 357
a 292 195
a 292 290
a 356 355
a 356 357
a 357 355
a 357 356
a 357 297
a 358 359
a 358 360
a 359 358
a 359 361
a 360 358
a 360 362
a 360 363
a 360 364
a 361 359
a 361 365
a 361 366
a 365 361
a 365 367
a 366 361
a 366 368
a 367 365
a 367 369
a 369 367
a 369 370
a 370 369
a 370 368
a 370 371
a 304 301
a 213 301
a 213 210
a 213 372
a 305 301
a 306 301
a 306 373
a 374 375
a 375 374
a 375 315
a 315 375
a 315 236
a 315 376
a 376 315
a 376 377
a 316 236
a 316 237
a 317 237
a 317 324
a 318 237
a 318 378
a 318 379
a 318 380
a 324 317
a 324 381
a 324 323
a 324 380
a 324 314
a 381 324
a 381 382
a 380 324
a 380 383
a 380 318
a 380 384
a 380 385
a 382 381
a 382 386
a 386 382
a 386 332
a 332 386
a 332 328
a 332 331
a 332 337
a 337 332
a 337 330
a 333 329
a 333 387
a 333 388
a 333 334
a 333 339
a 333 389
a 334 329
a 334 333
a 334 387
a 334 340
a 334 390
a 334 391
a 334 347
a 387 333
a 387 392
a 387 393
a 387 394
a 387 334
a 387 395
a 387 396
a 388 333
a 388 397
a 388 398
a 339 333
a 339 393
a 339 331
a 339 399
a 389 333
a 392 387
a 392 400
a 393 387
a 393 401
a 393 339
a 394 387
a 394 402
a 394 403
a 395 387
a 395 402
a 395 404
a 395 405
a 396 387
a 396 406
a 400 392
a 400 407
a 407 400
a 407 408
a 408 407
a 408 409
a 409 408
a 409 410
a 409 411
a 409 412
a 410 409
a 410 411
a 410 413
a 411 409
a 411 410
a 411 414
a 411 352
a 411 415
a 411 416
a 412 409
a 412 402
a 413 410
a 414 411
a 414 350
a 414 417
a 352 411
a 352 349
a 352 351
a 352 416
a 352 346
a 415 411
a 415 418
a 416 411
a 416 352
a 416 347
a 416 419
a 350 414
a 350 420
a 350 349
a 350 421
a 417 414
a 417 420
a 420 350
a 420 422
a 420 417
a 421 350
a 421 423
a 422 420
a 422 424
a 422 425
a 424 422
a 424 425
a 424 426
a 425 422
a 425 424
a 425 427
a 425 428
a 425 429
a 426 424
a 426 428
a 427 425
a 427 428
a 427 430
a 428 425
a 428 427
a 428 431
a 428 432
a 428 426
a 429 425
a 429 433
a 429 434
a 430 427
a 430 435
a 431 428
a 431 436
a 431 437
a 431 438
a 432 428
a 432 418
a 432 437
a 432 439
a 432 440
a 436 431
a 436 441
a 437 431
a 437 432
a 437 442
a 438 431
a 438 443
a 441 436
a 441 444
a 444 441
a 444 445
a 445 444
a 445 446
a 446 445
a 446 362
a 362 446
a 362 447
a 362 448
a 362 360
a 447 362
a 447 449
a 447 450
a 447 451
a 447 363
a 447 452
a 448 362
a 448 453
a 448 451
a 448 454
a 448 455
a 449 447
a 449 450
a 450 447
a 450 449
a 450 456
a 450 457
a 450 458
a 451 447
a 451 448
a 363 447
a 363 360
a 452 447
a 456 450
a 456 459
a 457 450
a 458 450
a 458 460
a 459 456
a 459 461
a 461 459
a 368 366
a 368 370
a 368 462
a 462 368
a 462 463
a 371 370
a 371 464
a 465 466
a 466 465
a 466 467
a 467 466
a 467 468
a 467 469
a 467 470
a 468 467
a 468 471
a 469 467
a 469 472
a 470 467
a 470 473
a 471 468
a 471 474
a 474 471
a 474 475
a 475 474
a 475 476
a 475 477
a 476 475
a 476 478
a 477 475
a 477 479
a 478 476
a 478 480
a 478 481
a 480 478
a 480 482
a 480 483
a 481 478
a 481 484
a 481 485
a 482 480
a 482 486
a 482 487
a 482 488
a 483 480
a 483 489
a 486 482
a 486 490
a 487 482
a 487 491
a 488 482
a 488 492
a 488 489
a 488 493
a 490 486
a 490 494
a 494 490
a 494 493
a 494 495
a 494 496
a 493 494
a 493 488
a 495 494
a 496 494
a 496 497
a 498 378
a 498 499
a 498 500
a 498 501
a 378 498
a 378 502
a 378 318
a 499 498
a 499 503
a 500 498
a 500 379
a 501 498
a 501 377
a 502 378
a 502 383
a 383 502
a 383 401
a 383 379
a 383 380
a 401 383
a 401 393
a 401 504
a 401 505
a 401 399
a 379 383
a 379 506
a 379 318
a 379 507
a 379 500
a 379 508
a 379 509
a 504 401
a 504 510
a 505 401
a 505 511
a 505 508
a 505 512
a 399 401
a 399 339
a 402 394
a 402 513
a 402 514
a 402 515
a 402 516
a 402 412
a 402 517
a 402 395
a 403 394
a 403 406
a 513 402
a 513 518
a 513 519
a 514 402
a 514 390
a 515 402
a 515 520
a 516 402
a 516 404
a 516 521
a 517 402
a 517 522
a 518 513
a 518 523
a 518 524
a 519 513
a 519 525
a 519 526
a 519 527
a 523 518
a 523 418
a 524 518
a 524 528
a 418 523
a 418 432
a 418 415
a 418 529
a 418 435
a 529 418
a 529 526
a 435 418
a 435 434
a 435 530
a 435 430
a 439 432
a 439 526
a 439 531
a 440 432
a 440 532
a 440 533
a 440 534
a 440 442
a 442 437
a 442 440
a 443 438
a 443 453
a 453 443
a 453 448
a 454 448
a 454 535
a 454 536
a 455 448
a 455 534
a 537 506
a 537 538
a 506 537
a 506 539
a 506 379
a 506 540
a 506 541
a 538 537
a 538 542
a 539 506
a 539 543
a 539 544
a 539 545
a 539 541
a 540 506
a 540 546
a 540 547
a 540 542
a 540 548
a 540 549
a 541 506
a 541 539
a 541 550
a 541 551
a 543 539
a 543 552
a 544 539
a 544 507
a 544 553
a 544 554
a 545 539
a 545 555
a 552 543
a 552 556
a 556 552
a 556 557
a 557 556
a 557 558
a 558 557
a 558 559
a 558 560
a 558 561
a 559 558
a 559 562
a 560 558
a 560 563
a 561 558
a 561 564
a 562 559
a 562 565
a 565 562
a 565 566
a 565 567
a 565 568
a 566 565
a 566 569
a 567 565
a 567 563
a 567 570
a 568 565
a 568 571
a 568 572
a 568 573
a 569 566
a 569 574
a 569 575
a 574 569
a 574 576
a 574 577
a 574 578
a 574 579
a 574 580
a 575 569
a 575 581
a 575 582
a 576 574
a 576 583
a 577 574
a 577 584
a 577 585
a 578 574
a 578 581
a 578 586
a 578 587
a 578 588
a 579 574
a 579 531
a 580 574
a 580 584
a 580 531
a 580 589
a 583 576
a 583 590
a 583 591
a 590 583
a 590 592
a 590 593
a 591 583
a 591 594
a 592 590
a 592 595
a 592 594
a 592 596
a 593 590
a 593 597
a 595 592
a 595 598
a 595 599
a 595 600
a 594 592
a 594 591
a 594 587
a 596 592
a 598 595
a 598 601
a 599 595
a 599 587
a 599 602
a 600 595
a 601 598
a 601 603
a 603 601
a 603 604
a 604 603
a 604 535
a 535 604
a 535 454
a 536 454
a 536 605
a 536 606
a 607 546
a 607 608
a 607 609
a 607 610
a 607 611
a 546 607
a 546 612
a 546 540
a 608 607
a 608 613
a 608 614
a 608 615
a 608 616
a 608 617
a 608 553
a 608 618
a 608 619
a 608 620
a 609 607
a 609 472
a 610 607
a 610 547
a 611 607
a 611 497
a 612 546
a 612 621
a 612 554
a 621 612
a 621 622
a 621 623
a 621 624
a 621 625
a 621 626
a 554 612
a 554 544
a 622 621
a 622 627
a 622 628
a 622 629
a 623 621
a 623 630
a 623 631
a 624 621
a 624 614
a 624 632
a 624 633
a 625 621
a 625 634
a 625 626
a 625 635
a 626 621
a 626 625
a 626 564
a 627 622
a 627 636
a 628 622
a 628 637
a 628 571
a 628 638
a 628 639
a 629 622
a 629 640
a 641 642
a 641 643
a 642 641
a 643 641
a 643 644
a 613 608
a 613 630
a 614 608
a 614 624
a 615 608
a 616 608
a 616 645
a 616 631
a 616 646
a 617 608
a 617 647
a 553 608
a 553 544
a 618 608
a 618 648
a 619 608
a 619 549
a 620 608
a 620 649
a 630 613
a 630 623
a 631 623
a 631 616
a 472 469
a 472 609
a 632 624
a 632 650
a 633 624
a 633 651
a 650 632
a 650 652
a 652 650
a 645 616
a 645 653
a 645 654
a 646 616
a 646 655
a 653 645
a 653 640
a 654 645
a 654 656
a 657 658
a 657 659
a 657 660
a 658 657
a 658 661
a 659 657
a 659 662
a 659 663
a 660 657
a 660 664
a 661 658
a 661 665
a 665 661
a 665 666
a 666 665
a 666 667
a 667 666
a 667 668
a 667 669
a 667 670
a 668 667
a 668 671
a 668 672
a 669 667
a 669 673
a 670 667
a 670 674
a 671 668
a 671 675
a 672 668
a 672 676
a 675 671
a 675 677
a 677 675
a 677 678
a 678 677
a 647 617
a 647 651
a 651 647
a 651 662
a 651 633
a 662 651
a 662 659
a 662 679
a 679 662
a 679 655
a 679 680
a 679 681
a 663 659
a 663 682
a 682 663
a 682 683
a 682 684
a 683 682
a 683 685
a 683 686
a 684 682
a 684 674
a 685 683
a 686 683
a 686 687
a 688 655
a 688 648
a 688 689
a 655 688
a 655 679
a 655 646
a 655 690
a 648 688
a 648 618
a 689 688
a 689 691
a 689 692
a 690 655
a 690 693
a 680 679
a 680 694
a 681 679
a 681 695
a 694 680
a 694 696
a 696 694
a 696 697
a 697 696
a 697 698
a 698 697
a 698 699
a 699 698
a 699 700
a 700 699
a 700 701
a 701 700
a 701 702
a 701 703
a 701 704
a 691 705
a 691 689
a 691 706
a 705 691
a 705 707
a 706 691
a 706 708
a 707 705
a 707 709
a 709 707
a 709 710
a 710 709
a 710 711
a 711 710
a 711 712
a 711 713
a 712 711
a 712 714
a 712 715
a 713 711
a 713 716
a 713 717
a 713 718
a 714 712
a 714 719
a 714 720
a 715 712
a 715 721
a 719 714
a 719 722
a 719 723
a 719 724
a 720 714
a 720 725
a 722 719
a 722 726
a 722 724
a 723 719
a 723 727
a 724 719
a 724 722
a 724 728
a 726 722
a 726 729
a 726 730
a 726 731
a 726 732
a 729 726
a 730 726
a 730 733
a 731 726
a 731 734
a 731 735
a 732 726
a 732 736
a 708 716
a 708 737
a 708 706
a 708 738
a 716 708
a 716 713
a 716 739
a 737 708
a 737 718
a 738 708
a 738 740
a 739 716
a 739 741
a 717 713
a 717 742
a 718 713
a 718 737
a 718 743
a 718 744
a 742 717
a 742 745
a 745 742
a 745 725
a 745 746
a 745 747
a 725 745
a 725 748
a 725 720
a 725 749
a 746 745
a 746 750
a 746 751
a 747 745
a 747 752
a 747 753
a 748 725
a 748 754
a 749 725
a 749 755
a 749 728
a 754 748
a 743 718
a 743 756
a 744 718
a 756 743
a 756 757
a 756 758
a 756 759
a 757 756
a 758 756
a 758 760
a 759 756
a 759 761
a 762 763
a 763 762
a 763 764
a 764 763
a 764 765
a 765 764
a 765 766
a 766 765
a 766 767
a 766 768
a 766 769
a 767 766
a 767 770
a 768 766
a 769 766
a 769 771
a 770 767
a 770 772
a 772 770
a 772 773
a 772 484
a 773 772
a 773 774
a 773 208
a 484 772
a 484 481
a 372 213
a 372 775
a 214 211
a 214 776
a 214 207
a 215 211
a 215 220
a 216 211
a 216 777
a 776 214
a 776 373
a 207 214
a 207 202
a 547 610
a 547 540
a 547 778
a 547 779
a 778 547
a 778 780
a 778 781
a 778 782
a 779 547
a 779 783
a 147 144
a 147 242
a 148 144
a 148 145
a 148 784
a 242 147
a 242 157
a 319 238
a 319 326
a 319 785
a 507 379
a 507 544
a 507 27
a 507 786
a 508 379
a 508 505
a 508 511
a 509 379
a 509 634
a 509 635
a 27 507
a 27 8
a 786 507
a 786 787
a 692 689
a 692 788
a 692 789
a 25 16
a 25 7
a 64 16
a 64 81
a 64 790
a 65 16
a 65 791
a 94 26
a 94 163
a 96 90
a 163 95
a 163 94
a 158 154
a 158 160
a 158 152
a 158 161
a 158 103
a 103 158
a 103 99
a 167 160
a 167 792
a 792 167
a 792 793
a 793 792
a 793 320
a 320 793
a 320 322
a 320 239
a 320 794
a 794 320
a 794 255
a 326 322
a 326 319
a 326 795
a 326 255
a 384 380
a 384 510
a 385 380
a 385 796
a 510 384
a 510 504
a 511 505
a 511 797
a 511 508
a 511 798
a 512 505
a 512 405
a 797 511
a 797 799
a 798 511
a 798 800
a 799 797
a 799 634
a 634 799
a 634 625
a 634 563
a 634 509
a 563 634
a 563 801
a 563 560
a 563 567
a 635 625
a 635 509
a 564 626
a 564 561
a 564 802
a 564 803
a 695 681
a 695 804
a 804 695
a 804 702
a 702 804
a 702 805
a 702 701
a 702 806
a 805 702
a 805 807
a 805 808
a 805 809
a 805 806
a 806 702
a 806 805
a 806 810
a 807 805
a 807 727
a 808 805
a 808 811
a 809 805
a 809 812
a 727 807
a 727 723
a 727 813
a 813 727
a 750 746
a 750 814
a 751 746
a 751 753
a 751 815
a 814 750
a 814 760
a 760 814
a 760 758
a 760 816
a 816 760
a 761 759
a 28 8
a 28 817
a 28 13
a 29 9
a 29 818
a 29 91
a 29 819
a 335 254
a 335 391
a 335 820
a 266 254
a 266 251
a 397 388
a 397 404
a 397 821
a 398 388
a 404 397
a 404 822
a 404 801
a 404 516
a 404 395
a 821 397
a 821 800
a 822 404
a 822 801
a 801 404
a 801 822
a 801 563
a 801 823
a 823 801
a 823 824
a 802 564
a 802 637
a 803 564
a 803 573
a 637 802
a 637 825
a 637 628
a 637 826
a 825 637
a 825 827
a 826 637
a 827 825
a 827 664
a 664 827
a 664 660
a 664 828
a 828 664
a 828 829
a 787 786
a 787 817
a 817 787
a 817 28
a 817 127
a 127 817
a 127 108
a 33 13
a 33 39
a 34 14
a 34 85
a 85 34
a 85 830
a 85 81
a 830 85
a 830 119
a 119 830
a 119 112
a 123 117
a 123 831
a 123 172
a 831 123
a 831 832
a 172 123
a 172 171
a 832 831
a 832 265
a 832 833
a 265 832
a 265 278
a 265 124
a 833 832
a 833 179
a 278 265
a 278 277
a 278 273
a 278 274
a 277 278
a 277 272
a 341 263
a 341 834
a 341 835
a 390 334
a 390 514
a 391 334
a 391 335
a 347 334
a 347 834
a 347 416
a 347 419
a 347 344
a 347 836
a 520 515
a 520 525
a 520 824
a 525 520
a 525 837
a 525 838
a 525 839
a 525 570
a 525 519
a 824 520
a 824 823
a 837 525
a 837 840
a 837 841
a 837 842
a 838 525
a 838 521
a 839 525
a 839 527
a 570 525
a 570 567
a 570 841
a 840 837
a 840 843
a 840 844
a 841 837
a 841 570
a 842 837
a 843 840
a 843 584
a 844 840
a 844 589
a 584 843
a 584 577
a 584 589
a 584 580
a 584 845
a 589 584
a 589 527
a 589 844
a 589 580
a 845 584
a 585 577
a 581 575
a 581 578
a 582 575
a 582 636
a 582 588
a 582 639
a 586 578
a 586 846
a 587 578
a 587 594
a 587 599
a 588 578
a 588 582
a 846 586
a 846 847
a 848 849
a 848 850
a 849 848
a 849 851
a 849 852
a 850 848
a 850 853
a 851 849
a 851 854
a 851 855
a 852 849
a 852 656
a 854 851
a 854 673
a 855 851
a 855 856
a 673 854
a 673 669
a 674 670
a 674 684
a 703 701
a 703 857
a 704 701
a 857 703
a 857 811
a 811 857
a 811 808
a 812 809
a 812 733
a 733 812
a 733 730
a 734 731
a 734 755
a 735 731
a 735 736
a 735 858
a 735 859
a 755 734
a 755 749
a 45 38
a 45 860
a 860 45
a 860 861
a 46 38
a 46 862
a 39 19
a 39 33
a 40 19
a 70 20
a 70 130
a 133 130
a 351 349
a 351 352
a 346 352
a 346 343
a 346 348
a 526 529
a 526 439
a 526 519
a 531 439
a 531 579
a 531 863
a 531 864
a 531 580
a 863 531
a 863 865
a 864 531
a 644 643
a 644 853
a 853 644
a 853 850
a 57 49
a 57 861
a 57 866
a 58 49
a 58 60
a 139 36
a 139 136
a 532 440
a 532 867
a 533 440
a 533 868
a 533 597
a 534 440
a 534 455
a 867 532
a 867 869
a 869 867
a 869 870
a 869 871
a 870 869
a 870 872
a 870 873
a 871 869
a 871 874
a 871 875
a 871 876
a 872 870
a 872 877
a 873 870
a 873 875
a 877 872
a 877 878
a 878 877
a 878 879
a 879 878
a 880 297
a 297 880
a 297 357
a 297 294
a 364 360
a 364 881
a 605 536
a 605 882
a 605 883
a 606 536
a 606 884
a 874 871
a 875 871
a 875 885
a 875 873
a 875 886
a 876 871
a 876 887
a 885 875
a 885 888
a 886 875
a 886 889
a 888 885
a 888 890
a 890 888
a 890 891
a 891 890
a 861 860
a 861 57
a 866 57
a 866 892
a 866 893
a 866 894
a 60 58
a 60 51
a 895 896
a 895 66
a 896 895
a 896 897
a 896 41
a 66 895
a 66 17
a 66 898
a 897 896
a 41 896
a 41 32
a 217 212
a 217 899
a 218 212
a 218 900
a 219 212
a 219 901
a 219 902
a 220 212
a 220 215
a 899 217
a 899 204
a 204 899
a 204 201
a 204 903
a 903 204
a 903 904
a 205 201
a 205 905
a 206 201
a 206 906
a 905 205
a 905 907
a 907 905
a 907 774
a 774 907
a 774 908
a 774 773
a 908 774
a 908 909
a 909 908
a 771 769
a 771 910
a 910 771
a 910 473
a 910 911
a 473 910
a 473 470
a 911 910
a 912 913
a 913 912
a 913 862
a 862 913
a 862 46
a 126 106
a 126 185
a 165 149
a 165 914
a 166 149
a 906 206
a 906 915
a 915 906
a 915 916
a 916 915
a 916 917
a 917 916
a 917 918
a 918 917
a 918 919
a 919 918
a 920 921
a 921 920
a 921 922
a 922 921
a 922 923
a 922 904
a 923 922
a 923 924
a 904 922
a 904 903
a 924 923
a 925 926
a 926 925
a 926 927
a 927 926
a 927 928
a 927 929
a 928 927
a 929 927
a 929 930
a 931 932
a 932 931
a 932 933
a 933 932
a 933 934
a 934 933
a 934 935
a 935 934
a 935 936
a 936 935
a 936 937
a 937 936
a 937 938
a 938 937
a 938 939
a 939 938
a 939 940
a 940 939
a 940 941
a 942 226
a 226 942
a 226 224
a 179 833
a 179 177
a 943 241
a 241 943
a 241 231
a 785 319
a 785 791
a 795 326
a 795 944
a 255 326
a 255 794
a 255 247
a 944 795
a 944 336
a 336 944
a 336 330
a 336 257
a 257 336
a 257 247
a 820 335
a 256 247
a 834 341
a 834 347
a 835 341
a 419 347
a 419 416
a 836 347
a 836 945
a 348 346
a 348 344
a 479 477
a 479 946
a 946 479
a 946 947
a 947 946
a 947 491
a 491 947
a 491 487
a 492 488
a 492 948
a 489 488
a 489 483
a 489 948
a 948 492
a 948 489
a 542 540
a 542 503
a 542 538
a 542 551
a 548 540
a 549 540
a 549 619
a 549 550
a 549 949
a 796 385
a 796 338
a 338 796
a 338 331
a 521 516
a 521 838
a 522 517
a 522 528
a 528 522
a 528 950
a 528 524
a 950 528
a 950 951
a 951 950
a 951 433
a 433 951
a 433 952
a 433 953
a 433 429
a 952 433
a 952 954
a 953 433
a 953 955
a 954 952
a 503 542
a 503 499
a 503 555
a 551 542
a 551 541
a 555 503
a 555 545
a 405 512
a 405 395
a 527 839
a 527 865
a 527 589
a 527 519
a 865 527
a 865 863
a 956 868
a 868 956
a 868 533
a 597 533
a 597 593
a 636 627
a 636 582
a 639 582
a 639 628
a 602 599
a 602 957
a 957 602
a 957 958
a 958 957
a 958 959
a 959 958
a 959 882
a 882 959
a 882 605
a 883 605
a 883 960
a 884 606
a 884 961
a 884 962
a 884 887
a 884 963
a 961 884
a 961 964
a 962 884
a 962 965
a 887 884
a 887 876
a 963 884
a 964 961
a 964 966
a 966 964
a 966 967
a 967 966
a 967 968
a 968 967
a 968 969
a 969 968
a 640 653
a 640 629
a 640 829
a 829 640
a 829 828
a 656 654
a 656 852
a 970 971
a 971 970
a 971 972
a 972 971
a 972 973
a 973 972
a 973 974
a 974 973
a 974 975
a 975 974
a 975 976
a 976 975
a 976 977
a 977 976
a 977 978
a 775 372
a 775 373
a 373 775
a 373 776
a 373 306
a 208 202
a 208 773
a 485 481
a 485 979
a 980 981
a 981 980
a 981 982
a 982 981
a 982 979
a 979 982
a 979 485
a 930 929
a 930 983
a 983 930
a 983 984
a 984 983
a 984 985
a 985 984
a 985 900
a 900 985
a 900 218
a 941 940
a 941 986
a 986 941
a 986 987
a 987 986
a 987 901
a 901 987
a 901 219
a 902 219
a 902 988
a 777 216
a 497 496
a 497 611
a 312 311
a 312 240
a 550 549
a 550 541
a 949 549
a 649 620
a 649 788
a 788 649
a 788 692
a 789 692
a 789 740
a 740 789
a 740 738
a 377 376
a 377 501
a 790 64
a 693 690
a 693 721
a 721 693
a 721 715
a 989 990
a 990 989
a 990 818
a 818 990
a 818 29
a 819 29
a 98 92
a 98 170
a 170 98
a 170 162
a 898 66
a 258 248
a 258 268
a 571 568
a 571 628
a 572 568
a 573 568
a 573 803
a 638 628
a 638 991
a 185 126
a 185 182
a 945 836
a 193 189
a 992 354
a 354 992
a 354 353
a 892 866
a 892 993
a 892 994
a 893 866
a 893 995
a 894 866
a 894 996
a 894 997
a 993 892
a 993 998
a 994 892
a 994 999
a 998 993
a 960 883
a 889 886
a 889 1000
a 1000 889
a 463 462
a 965 962
a 965 1001
a 1001 965
a 676 672
a 676 1002
a 1002 676
a 687 686
a 687 1003
a 1003 687
a 1003 978
a 978 1003
a 978 977
a 810 806
a 728 724
a 728 749
a 736 732
a 736 735
a 858 735
a 858 1004
a 859 735
a 859 1005
a 1004 858
a 1005 859
a 1005 1006
a 1006 1005
a 752 747
a 752 1007
a 753 747
a 753 751
a 1007 752
a 815 751
a 1008 741
a 1008 1009
a 741 1008
a 741 739
a 1009 1008
a 1010 1011
a 1011 1010
a 1011 1012
a 1012 1011
a 1012 988
a 988 1012
a 988 902
a 784 148
a 784 1013
a 1013 784
a 914 165
a 780 778
a 780 1014
a 781 778
a 782 778
a 782 1015
a 1014 780
a 1015 782
a 1015 1016
a 1016 1015
a 1016 1017
a 1017 1016
a 783 779
a 88 83
a 800 798
a 800 821
a 791 65
a 791 785
a 267 252
a 267 275
a 406 396
a 406 403
a 1018 1019
a 1019 1018
a 1019 991
a 991 1019
a 991 638
a 42 32
a 1020 1021
a 1021 1020
a 1021 1022
a 1022 1021
a 1022 1023
a 1023 1022
a 1023 1024
a 1024 1023
a 1024 1025
a 1025 1024
a 1025 955
a 955 1025
a 955 953
a 955 1026
a 1026 955
a 847 846
a 856 855
a 71 22
a 423 421
a 434 429
a 434 435
a 530 435
a 530 1027
a 1027 530
a 1027 1028
a 1028 1027
a 1028 1029
a 1029 1028
a 1029 1030
a 1030 1029
a 995 893
a 996 894
a 997 894
a 999 994
a 999 1031
a 999 1032
a 1031 999
a 1031 1033
a 1032 999
a 1032 1034
a 1033 1031
a 1033 1035
a 1035 1033
a 1035 1036
a 1036 1035
a 61 52
a 1034 1032
a 73 63
a 881 364
a 881 1037
a 1037 881
a 1038 1039
a 1039 1038
a 1039 460
a 460 1039
a 460 458
a 464 371
