p sp 96 117
a 6 1
a 6 8
a 6 45
a 6 54
a 6 89
a 1 8
a 1 54
a 1 76
a 1 85
a 8 28
a 8 38
a 8 39
a 8 42
a 8 54
a 8 72
a 54 9
a 54 10
a 54 19
a 54 29
a 54 36
a 54 37
a 54 38
a 54 47
a 54 51
a 54 61
a 54 67
a 54 89
a 54 92
a 54 93
a 56 2
a 56 11
a 56 45
a 56 51
a 56 52
a 56 72
a 56 80
a 56 90
a 75 3
a 75 13
a 75 45
a 75 66
a 19 4
a 16 5
a 5 17
a 5 20
a 5 40
a 5 93
a 40 59
a 40 93
a 93 15
a 93 28
a 93 34
a 93 48
a 93 72
a 45 11
a 45 31
a 45 35
a 45 43
a 45 58
a 45 74
a 45 79
a 45 83
a 89 9
a 89 26
a 89 46
a 89 64
a 89 82
a 89 84
a 89 86
a 61 7
a 61 72
a 61 95
a 28 25
a 28 32
a 28 78
a 39 50
a 72 29
a 72 44
a 72 51
a 72 62
a 72 69
a 9 95
a 95 63
a 11 94
a 15 12
a 15 21
a 15 33
a 24 13
a 41 14
a 41 66
a 41 81
a 41 88
a 14 50
a 50 77
a 21 96
a 84 18
a 53 22
a 53 27
a 53 57
a 53 64
a 53 70
a 22 65
a 22 68
a 65 91
a 68 29
a 51 23
a 51 74
a 64 30
a 64 81
a 31 55
a 31 58
a 43 74
a 74 60
a 79 71
a 73 48
a 48 87
a 70 49
